 vasp.5.4.4.18Apr17-6-g9f103f2a35 (build Aug 29 2022 10:07:22) complex

 executed on           IFC91_ompi date 2022.09.30  21:51:26

 INCAR:
 POTCAR:   PAW_PBE Bi_d 06Sep2000
 POTCAR:   PAW_PBE Te 08Apr2002

 POTCAR:   PAW_PBE Bi_d 06Sep2000
   VRHFIN =Bi:

   TITEL  = PAW_PBE Bi_d 06Sep2000
   POMASS =  208.980; ZVAL   =   15.000    mass and valenz
   ENMAX  =  242.851; ENMIN  =  182.138 eV
   QCUT   =   -4.225; QGAM   =    8.450    optimization parameters

   Description
     l     E      TYP  RCUT    TYP  RCUT
     2   .000     23  2.500
     2  -.100     23  2.500
     0   .000     23  2.500
     0   .500     23  2.500
     1   .000     23  2.500
     1  1.000     23  2.500
     3  -.100      7  2.500

 POTCAR:   PAW_PBE Te 08Apr2002
   VRHFIN =Te: s2p4

   TITEL  = PAW_PBE Te 08Apr2002
   POMASS =  127.600; ZVAL   =    6.000    mass and valenz
   ENMAX  =  174.982; ENMIN  =  131.236 eV
   QCUT   =   -3.586; QGAM   =    7.172    optimization parameters

   Description
     l     E      TYP  RCUT    TYP  RCUT
     0   .000     23  2.300
     0   .000     23  2.300
     1   .000     23  2.300
     1   .000     23  2.300
     2   .000     23  2.300
     3  -.100     23  2.300

 PAW_PBE Bi_d 06Sep2000                 :
 PAW_PBE Te 08Apr2002                   :

 POSCAR: Bi12 Te18
  positions in direct lattice
 exchange correlation table for  LEXCH =        8
   RHO(1)=    0.500       N(1)  =     2000
   RHO(2)=  100.500       N(2)  =     4000

 ion  position               nearest neighbor table
   1  0.333  0.667  0.026-  15 3.09  15 3.09  15 3.09  17 3.29  17 3.29  17 3.29
   2  0.333  0.667  0.224-  13 3.09  13 3.09  13 3.09  14 3.29  14 3.29  14 3.29
   3  0.000  0.000  0.109-  18 3.09  18 3.09  18 3.09  20 3.29  20 3.29  20 3.29
   4  0.000  0.000  0.058-  16 3.09  16 3.09  16 3.09  17 3.29  17 3.29  17 3.29
   5  0.667  0.333  0.192-  21 3.09  21 3.09  21 3.09  14 3.29  14 3.29  14 3.29
   6  0.667  0.333  0.141-  19 3.09  19 3.09  19 3.09  20 3.29  20 3.29  20 3.29
   7  0.333  0.667  0.276-  24 3.09  24 3.09  24 3.09  26 3.29  26 3.29  26 3.29
   8  0.333  0.667  0.474-  22 3.09  22 3.09  22 3.09  23 3.29  23 3.29  23 3.29
   9  0.000  0.000  0.359-  27 3.09  27 3.09  27 3.09  29 3.29  29 3.29  29 3.29
  10  0.000  0.000  0.308-  25 3.09  25 3.09  25 3.09  26 3.29  26 3.29  26 3.29
  11  0.667  0.333  0.442-  30 3.09  30 3.09  30 3.09  23 3.29  23 3.29  23 3.29
  12  0.667  0.333  0.391-  28 3.09  28 3.09  28 3.09  29 3.29  29 3.29  29 3.29
  13  0.667  0.333  0.238-   2 3.09   2 3.09   2 3.09
  14  0.000  0.000  0.208-   2 3.29   5 3.29   2 3.29   2 3.29   5 3.29   5 3.29
  15  0.000  0.000  0.012-   1 3.09   1 3.09   1 3.09
  16  0.333  0.667  0.071-   4 3.09   4 3.09   4 3.09
  17  0.667  0.333  0.042-   1 3.29   1 3.29   1 3.29   4 3.29   4 3.29   4 3.29
  18  0.667  0.333  0.095-   3 3.09   3 3.09   3 3.09
  19  0.000  0.000  0.155-   6 3.09   6 3.09   6 3.09
  20  0.333  0.667  0.125-   6 3.29   6 3.29   6 3.29   3 3.29   3 3.29   3 3.29
  21  0.333  0.667  0.179-   5 3.09   5 3.09   5 3.09
  22  0.667  0.333  0.488-   8 3.09   8 3.09   8 3.09
  23  0.000  0.000  0.458-   8 3.29  11 3.29   8 3.29   8 3.29  11 3.29  11 3.29
  24  0.000  0.000  0.262-   7 3.09   7 3.09   7 3.09
  25  0.333  0.667  0.321-  10 3.09  10 3.09  10 3.09
  26  0.667  0.333  0.292-   7 3.29   7 3.29   7 3.29  10 3.29  10 3.29  10 3.29
  27  0.667  0.333  0.345-   9 3.09   9 3.09   9 3.09
  28  0.000  0.000  0.405-  12 3.09  12 3.09  12 3.09
  29  0.333  0.667  0.375-  12 3.29  12 3.29  12 3.29   9 3.29   9 3.29   9 3.29
  30  0.333  0.667  0.429-  11 3.09  11 3.09  11 3.09

  LATTYP: Found a hexagonal cell.
 ALAT       =     4.4508843174
 C/A-ratio  =    28.7023057342

  Lattice vectors:

 A1 = (   4.4508839933,   0.0000000000,   0.0000000000)
 A2 = (  -2.2254416726,   3.8545787946,   0.0000000000)
 A3 = (   0.0000000000,   0.0000000000, 127.7506424653)

Analysis of symmetry for initial positions (statically):
 Subroutine PRICEL returns:
 Original cell was already a primitive cell.

 Routine SETGRP: Setting up the symmetry group for a
 hexagonal supercell.

 Subroutine GETGRP returns: Found 12 space group operations
 (whereof  6 operations were pure point group operations)
 out of a pool of 24 trial point group operations.

The static configuration has the point symmetry C_3v.
 The point group associated with its full space group is D_3d.

Analysis of symmetry for dynamics (positions and initial velocities):
 Subroutine PRICEL returns:
 Original cell was already a primitive cell.

[...]

The dynamic configuration has the point symmetry C_3v.
 The point group associated with its full space group is D_3d.

Analysis of constrained symmetry for selective dynamics:
 Subroutine PRICEL returns:
 Original cell was already a primitive cell.

 Routine SETGRP: Setting up the symmetry group for a
 hexagonal supercell.

 Subroutine GETGRP returns: Found  6 space group operations
 (whereof  6 operations were pure point group operations)
 out of a pool of 24 trial point group operations.

The constrained configuration has the point symmetry C_3v.

 Subroutine INISYM returns: Found  6 space group operations
 (whereof  6 operations are pure point group operations),
 and found     1 'primitive' translations

 KPOINTS: k-point density of [50, 50, 50]/[a, b, c

Automatic generation of k-mesh.
Space group operators:
 irot       det(A)        alpha          n_x          n_y          n_z        tau_x        tau_y        tau_z
    1     1.000000     0.000000     1.000000     0.000000     0.000000     0.000000     0.000000     0.000000
    2     1.000000   120.000000     0.000000     0.000000    -1.000000     0.000000     0.000000     0.000000
    3     1.000000   120.000000     0.000000    -0.000000     1.000000     0.000000     0.000000     0.000000
    4    -1.000000   180.000000     1.000000    -0.000000     0.000000     0.000000     0.000000     0.000000
    5    -1.000000   180.000000     0.500000    -0.866025     0.000000     0.000000     0.000000     0.000000
    6    -1.000000   180.000000    -0.500000    -0.866025     0.000000     0.000000     0.000000     0.000000

 Subroutine IBZKPT returns following result:

 Found     19 irreducible k-points:

 Following reciprocal coordinates:
            Coordinates               Weight
  0.000000  0.000000  0.000000      1.000000
  0.083333  0.000000  0.000000      6.000000
  0.166667  0.000000  0.000000      6.000000
  0.250000  0.000000  0.000000      6.000000
  0.333333  0.000000  0.000000      6.000000
  0.416667  0.000000  0.000000      6.000000
  0.500000  0.000000  0.000000      3.000000
  0.083333  0.083333  0.000000      6.000000
  0.166667  0.083333  0.000000     12.000000
  0.250000  0.083333  0.000000     12.000000
  0.333333  0.083333  0.000000     12.000000
  0.416667  0.083333  0.000000     12.000000
  0.166667  0.166667  0.000000      6.000000
  0.250000  0.166667  0.000000     12.000000
  0.333333  0.166667  0.000000     12.000000
  0.416667  0.166667  0.000000      6.000000
  0.250000  0.250000  0.000000      6.000000
  0.333333  0.250000  0.000000     12.000000
  0.333333  0.333333  0.000000      2.000000

 Following cartesian coordinates:
            Coordinates               Weight
  0.000000  0.000000  0.000000      1.000000
  0.018723  0.010810  0.000000      6.000000
  0.037446  0.021619  0.000000      6.000000
  0.056169  0.032429  0.000000      6.000000
  0.074891  0.043239  0.000000      6.000000
  0.093614  0.054048  0.000000      6.000000
  0.112337  0.064858  0.000000      3.000000
  0.018723  0.032429  0.000000      6.000000
  0.037446  0.043239  0.000000     12.000000
  0.056169  0.054048  0.000000     12.000000
  0.074891  0.064858  0.000000     12.000000
  0.093614  0.075668  0.000000     12.000000
  0.037446  0.064858  0.000000      6.000000
  0.056169  0.075668  0.000000     12.000000
  0.074891  0.086477  0.000000     12.000000
  0.093614  0.097287  0.000000      6.000000
  0.056169  0.097287  0.000000      6.000000
  0.074891  0.108097  0.000000     12.000000
  0.074891  0.129716  0.000000      2.000000

 SYSTEM =  Tetradymite Slab
 POSCAR =  Bi12 Te18

 Startparameter for this run:
   NWRITE =      2    write-flag & timer
   PREC   = accura    normal or accurate (medium, high low for compatibility)
   ISTART =      0    job   : 0-new  1-cont  2-samecut
   ICHARG =      2    charge: 1-file 2-atom 10-const
   ISPIN  =      1    spin polarized calculation?
   LNONCOLLINEAR =      F non collinear calculations
   LSORBIT =      F    spin-orbit coupling
   INIWAV =      1    electr: 0-lowe 1-rand  2-diag
   LASPH  =      F    aspherical Exc in radial PAW
   METAGGA=      F    non-selfconsistent MetaGGA calc.

 Electronic Relaxation 1
   ENCUT  =  300.0 eV  22.05 Ry    4.70 a.u.   6.29  6.29180.42*2*pi/ulx,y,z
   ENINI  =  300.0     initial cutoff
   ENAUG  =  442.9 eV  augmentation charge cutoff
   NELM   =     80;   NELMIN=  2; NELMDL= -5     # of ELM steps
   EDIFF  = 0.1E-05   stopping-criterion for ELM
   LREAL  =      F    real-space projection
   NLSPLINE    = F    spline interpolate recip. space projectors
   LCOMPAT=      F    compatible to vasp.4.4
   GGA_COMPAT  = T    GGA compatible to vasp.4.4-vasp.4.6
   LMAXPAW     = -100 max onsite density
   LMAXMIX     =    2 max onsite mixed and CHGCAR
   VOSKOWN=      0    Vosko Wilk Nusair interpolation
   ROPT   =    0.00000   0.00000
 Ionic relaxation
   EDIFFG = -.1E-01   stopping-criterion for IOM
   NSW    =     20    number of steps for IOM
   NBLOCK =      1;   KBLOCK =     20    inner block; outer block
   IBRION =      2    ionic relax: 0-MD 1-quasi-New 2-CG
   NFREE  =      1    steps in history (QN), initial steepest desc. (CG)
   ISIF   =      2    stress and relaxation
   IWAVPR =     11    prediction:  0-non 1-charg 2-wave 3-comb
   ISYM   =      2    0-nonsym 1-usesym 2-fastsym
   LCORR  =      T    Harris-Foulkes like correction to forces

   POTIM  = 0.5000    time-step for ionic-motion
   TEIN   =    0.0    initial temperature
   TEBEG  =    0.0;   TEEND  =   0.0 temperature during run
   SMASS  =  -3.00    Nose mass-parameter (am)
   estimated Nose-frequenzy (Omega)   =  0.10E-29 period in steps =****** mass=  -0.453E-27a.u.
   SCALEE = 1.0000    scale energy and forces
   NPACO  =    256;   APACO  = 16.0  distance and # of slots for P.C.
   PSTRESS=    0.0 pullay stress

  Mass of Ions in am
   POMASS = 208.98127.60
  Ionic Valenz
   ZVAL   =  15.00  6.00
  Atomic Wigner-Seitz radii
  virtual crystal weights
   VCA    =   1.00  1.00
   NELECT =     288.0000    total number of electrons
   NUPDOWN=      -1.0000    fix difference up-down

 DOS related values:
   EMIN   =  10.00;   EMAX   =-10.00  energy-range for DOS
   EFERMI =   0.00
   ISMEAR =     1;   SIGMA  =   0.20  broadening in eV -4-tet -1-fermi 0-gaus

 Electronic relaxation 2 (details)
   IALGO  =     68    algorithm
   LDIAG  =      T    sub-space diagonalisation (order eigenvalues)
   LSUBROT=      F    optimize rotation matrix (better conditioning)
   TURBO    =      0    0=normal 1=particle mesh
   IRESTART =      0    0=no restart 2=restart with 2 vectors
   NREBOOT  =      0    no. of reboots
[...]
  (g-gl).g = 0.635E-03      g.g   = 0.680E-03  gl.gl    = 0.248E-02
 g(Force)  = 0.680E-03   g(Stress)= 0.000E+00 ortho     = 0.443E-04
 gamma     =   0.25621
 trial     =   1.09735
 opt step  =   1.59785  (harmonic =   1.86386) maximal distance =0.00539885
 next E    =  -112.181592   (d E  =  -0.00064)

[...]

 d Force = 0.1017453E-03[ 0.613E-04, 0.142E-03]  d Energy = 0.9097901E-04 0.108E-04
 d Force = 0.2802418E+01[ 0.280E+01, 0.280E+01]  d Ewald  = 0.2802418E+01 0.147E-06

[...]

 d Force =-0.5459437E-04[-0.232E-03, 0.123E-03]  d Energy =-0.5041567E-04-0.418E-05
 d Force = 0.5602769E+01[ 0.560E+01, 0.560E+01]  d Ewald  = 0.5602768E+01 0.117E-05

[...]

 d Force = 0.7185043E-04[-0.788E-05, 0.152E-03]  d Energy = 0.7509263E-04-0.324E-05
 d Force =-0.3664374E+01[-0.366E+01,-0.366E+01]  d Ewald  =-0.3664373E+01-0.325E-06

[...]

 d Force = 0.1184446E-03[ 0.819E-04, 0.155E-03]  d Energy = 0.1205350E-03-0.209E-05
 d Force =-0.1482795E+02[-0.148E+02,-0.148E+02]  d Ewald  =-0.1482795E+02 0.321E-07

 Conjugate gradient step on ions:
 trial-energy change:   -0.000121  1 .order   -0.000118   -0.000155   -0.000082
  (g-gl).g = 0.444E-04      g.g   = 0.122E-03  gl.gl    = 0.680E-03
 g(Force)  = 0.122E-03   g(Stress)= 0.000E+00 ortho     = 0.120E-04
 gamma     =   0.06539
 trial     =   1.26670
 opt step  =   2.68430  (harmonic =   2.68430) maximal distance =0.00398386
 next E    =  -112.181798   (d E  =  -0.00016)

[...]

 eigenvalue-minimisations  :  7053
 total energy-change (2. order) : 0.1064200E-05  (-0.6018826E-07)
 number of electron     288.0000128 magnetization
 augmentation part       48.5989045 magnetization

 Broyden mixing:
  rms(total) = 0.87015E-04    rms(broyden)= 0.86979E-04
  rms(prec ) = 0.93095E-04
  weight for this iteration     100.00

 eigenvalues of (default mixing * dielectric matrix)
  average eigenvalue GAMMA=   0.8531
  2.4385  1.0308  0.7245  0.5167  0.1478  0.2604

[...]

--------------------------------------- Iteration     10(   8)  ---------------------------------------

 eigenvalue-minimisations  :  6923
 total energy-change (2. order) :-0.9082578E-07  (-0.3276757E-07)
 number of electron     288.0000128 magnetization
 augmentation part       48.5989045 magnetization

 Free energy of the ion-electron system (eV)
  alpha Z        PSCENC =       189.86283562
  Ewald energy   TEWEN  =   1157600.31378288
  -Hartree energ DENC   =  -1182944.18523175
  -exchange      EXHF   =         0.00000000
  -V(xc)+E(xc)   XCENC  =        76.20478799
  PAW double counting   =     19045.94456818   -17979.70696204
  entropy T*S    EENTRO =         0.04067736
  eigenvalues    EBANDS =     -3622.25010884
  atomic energy  EATOM  =     27521.59385125
  Solvation  Ediel_sol  =         0.00000000
  free energy    TOTEN  =      -112.18179935 eV

  energy without entropy =     -112.22247671  energy(sigma->0) =     -112.19535847

 average (electrostatic) potential at core
  the test charge radii are     1.0856  1.1897
  (the norm of the test charge is              1.0000)
       1-111.4125       2-111.4496       3-111.4318       4-111.4043       5-111.4486
       6-111.4325       7-111.4485       8-111.4141       9-111.4305      10-111.4481
      11-111.4038      12-111.4326      13 -94.0801      14 -93.9090      15 -93.9665
      16 -94.0257      17 -93.8520      18 -94.0666      19 -94.0608      20 -93.8919
      21 -94.0814      22 -93.9689      23 -93.8486      24 -94.0781      25 -94.0802
      26 -93.9098      27 -94.0566      28 -94.0674      29 -93.8949      30 -94.0242

 E-fermi :  -0.0878     XC(G=0):  -4.5699     alpha+bet : -5.0896

[...]

 k-point    19 :       0.3333    0.3333    0.0000
  band No.  band energies     occupation
      1     -23.0464      2.00000
      2     -23.0454      2.00000
      3     -23.0453      2.00000
      4     -23.0450      2.00000
      5     -23.0445      2.00000
      6     -23.0438      2.00000
      7     -23.0405      2.00000
      8     -23.0399      2.00000
      9     -23.0350      2.00000
     10     -23.0347      2.00000
     11     -23.0344      2.00000
     12     -23.0341      2.00000
     13     -23.0338      2.00000
     14     -23.0337      2.00000
     15     -23.0335      2.00000
     16     -23.0330      2.00000
     17     -23.0324      2.00000
     18     -23.0318      2.00000
     19     -23.0315      2.00000
     20     -23.0313      2.00000
     21     -23.0297      2.00000
     22     -23.0292      2.00000
     23     -23.0285      2.00000
     24     -23.0275      2.00000
     25     -23.0274      2.00000
     26     -23.0274      2.00000
     27     -23.0235      2.00000
     28     -23.0229      2.00000
     29     -23.0181      2.00000
     30     -23.0180      2.00000
     31     -23.0178      2.00000
     32     -23.0176      2.00000
     33     -23.0174      2.00000
     34     -23.0169      2.00000
     35     -23.0166      2.00000
     36     -23.0156      2.00000
     37     -23.0154      2.00000
     38     -23.0151      2.00000
     39     -23.0149      2.00000
     40     -23.0139      2.00000
     41     -23.0106      2.00000
     42     -23.0093      2.00000
     43     -23.0073      2.00000
     44     -23.0061      2.00000
     45     -23.0013      2.00000
     46     -23.0004      2.00000
     47     -22.9995      2.00000
     48     -22.9995      2.00000
     49     -22.9982      2.00000
     50     -22.9982      2.00000
     51     -22.9973      2.00000
     52     -22.9966      2.00000
     53     -22.9963      2.00000
     54     -22.9950      2.00000
     55     -22.9895      2.00000
     56     -22.9894      2.00000
     57     -22.9888      2.00000
     58     -22.9887      2.00000
     59     -22.9880      2.00000
     60     -22.9872      2.00000
[...]
    242       8.7100      0.00000
    243       8.7170      0.00000
    244       8.8253      0.00000
    245       8.8375      0.00000
    246       8.8386      0.00000
    247       8.8540      0.00000
    248       8.8597      0.00000
    249       8.8610      0.00000
    250       8.9903      0.00000
    251       8.9939      0.00000
    252       9.0341      0.00000
    253       9.0492      0.00000
    254       9.0738      0.00000
    255       9.0785      0.00000
    256       9.2445      0.00000

 soft charge-density along one line, spin component           1
         0         1         2         3         4         5         6         7         8         9
 total charge-density along one line

------------------------ aborting loop because EDIFF is reached ----------------------------------------

[...]

  FORCE on cell =-STRESS in cart. coord.  units (eV):
  Direction    XX          YY          ZZ          XY          YZ          ZX
  Alpha Z   189.86284   189.86284   189.86284
  Ewald  ************************************    -0.00018    -0.00020     0.00035
  Hartree************************************     0.00005    -0.00005     0.00008
  E(xc)   -1296.73841 -1296.73845 -1296.62363    -0.00004    -0.00000     0.00000
  Local  ************************************    -0.00106     0.00021    -0.00037
  n-local  3244.87035  3245.89952  3242.24440   -12.70249    -0.35617    18.99443
  augment  1116.84246  1116.84332  1119.09180     0.00075     0.00000    -0.00000
  Kinetic  2585.34080  2629.79841  2610.85345   -56.63092     0.21178    -1.10122
  Fock        0.00000     0.00000     0.00000     0.00000     0.00000     0.00000
  Total      -1.79103    -1.79103    -1.54130    -0.00000     0.00000    -0.00000
  in kB      -1.30927    -1.30927    -1.12671    -0.00000     0.00000    -0.00000

 VOLUME and BASIS-vectors are now :
  energy-cutoff  :      300.00
  volume of cell :     2191.73
      direct lattice vectors                 reciprocal lattice vectors
     4.450883993  0.000000000  0.000000000     0.224674469  0.129715840  0.000000000
    -2.225441673  3.854578795  0.000000000     0.000000000  0.259431718  0.000000000
     0.000000000  0.000000000127.750642465    -0.000000000 -0.000000000  0.007827749

  length of vectors
     4.450883993  4.450883993127.750642465     0.259431718  0.259431718  0.007827749

 FORCES acting on ions
    electron-ion (+dipol)            ewald-force                    non-local-force                 convergence-correction
   0.225E-02 -.130E-02 0.105E+05   0.267E-03 -.154E-03 -.104E+05   0.179E-17 -.773E-17 -.502E+01   -.519E-08 0.299E-08 -.877E-02
   0.226E-02 -.130E-02 0.942E+03   0.304E-03 -.175E-03 -.947E+03   -.126E-16 0.767E-17 0.475E+01   -.524E-08 0.303E-08 -.463E-02
   0.123E-05 -.574E-06 0.665E+04   0.507E-04 -.293E-04 -.665E+04   0.769E-17 -.266E-17 -.481E+01   -.213E-08 0.123E-08 -.119E-02
   -.940E-06 0.662E-06 0.854E+04   -.496E-04 0.287E-04 -.854E+04   0.147E-17 -.308E-17 0.469E+01   -.106E-07 0.611E-08 -.101E-01
   -.226E-02 0.130E-02 0.285E+04   -.304E-03 0.175E-03 -.285E+04   -.143E-16 0.784E-17 -.476E+01   0.607E-09 -.350E-09 -.463E-02
   -.225E-02 0.130E-02 0.474E+04   -.267E-03 0.154E-03 -.474E+04   -.109E-16 0.178E-18 0.470E+01   0.499E-08 -.288E-08 -.334E-02
   0.225E-02 -.130E-02 -.943E+03   0.267E-03 -.154E-03 0.947E+03   -.821E-17 0.169E-17 -.474E+01   -.384E-08 0.222E-08 -.534E-02
   0.226E-02 -.131E-02 -.104E+05   0.305E-03 -.176E-03 0.104E+05   -.177E-17 0.578E-17 0.503E+01   0.192E-07 -.111E-07 0.634E-03
   0.898E-06 -.616E-06 -.474E+04   0.494E-04 -.285E-04 0.474E+04   -.273E-17 -.134E-17 -.469E+01   -.181E-07 0.104E-07 0.908E-02
   -.114E-05 0.577E-06 -.286E+04   -.504E-04 0.291E-04 0.285E+04   -.224E-17 0.142E-18 0.476E+01   -.938E-09 0.541E-09 -.405E-02
   -.226E-02 0.130E-02 -.854E+04   -.304E-03 0.175E-03 0.854E+04   -.330E-18 0.876E-17 -.469E+01   -.171E-08 0.986E-09 0.854E-02
   -.225E-02 0.130E-02 -.665E+04   -.267E-03 0.154E-03 0.665E+04   0.959E-18 0.412E-17 0.481E+01   0.433E-08 -.250E-08 0.119E-01
   -.628E-03 0.363E-03 0.417E+02   -.221E-03 0.127E-03 -.362E+02   -.178E-16 0.643E-17 -.549E+01   0.105E-08 -.609E-09 -.161E-02
   0.440E-08 -.504E-08 0.759E+03   -.258E-07 0.149E-07 -.759E+03   0.108E-18 -.359E-19 0.483E-02   -.746E-09 0.430E-09 -.177E-02
   0.525E-04 -.307E-04 0.451E+04   -.120E-03 0.695E-04 -.452E+04   0.462E-16 -.288E-16 0.575E+01   0.235E-09 -.135E-09 -.123E-02
   0.657E-03 -.379E-03 0.308E+04   0.138E-03 -.796E-04 -.307E+04   -.533E-18 -.142E-16 -.545E+01   -.186E-08 0.107E-08 -.260E-02
   -.599E-03 0.345E-03 0.380E+04   -.220E-03 0.127E-03 -.380E+04   0.680E-18 -.292E-18 0.152E-01   -.495E-10 0.286E-10 -.437E-02
   -.657E-03 0.379E-03 0.300E+04   -.138E-03 0.796E-04 -.300E+04   0.607E-17 -.529E-17 0.553E+01   0.265E-10 -.153E-10 -.786E-03
   -.530E-04 0.308E-04 0.156E+04   0.113E-03 -.650E-04 -.156E+04   -.355E-16 -.104E-16 -.547E+01   0.116E-08 -.667E-09 -.795E-03
   0.599E-03 -.346E-03 0.228E+04   0.220E-03 -.127E-03 -.228E+04   -.279E-18 0.150E-18 0.174E-01   -.112E-08 0.649E-09 -.617E-03
   0.628E-03 -.363E-03 0.148E+04   0.221E-03 -.127E-03 -.148E+04   -.100E-16 -.169E-16 0.550E+01   0.311E-09 -.180E-09 -.131E-02
   -.633E-03 0.366E-03 -.451E+04   -.215E-03 0.124E-03 0.452E+04   0.649E-16 -.253E-17 -.575E+01   -.563E-08 0.325E-08 0.185E-02
   -.294E-06 0.357E-06 -.380E+04   0.931E-06 -.537E-06 0.380E+04   -.366E-18 0.436E-19 -.117E-01   0.313E-08 -.181E-08 0.267E-02
   0.531E-04 -.309E-04 -.419E+02   -.113E-03 0.652E-04 0.364E+02   0.288E-17 -.104E-17 0.549E+01   -.145E-10 0.838E-11 -.168E-02
   0.657E-03 -.379E-03 -.148E+04   0.138E-03 -.796E-04 0.148E+04   0.248E-16 0.829E-17 -.550E+01   0.568E-09 -.328E-09 -.328E-03
   -.599E-03 0.346E-03 -.760E+03   -.220E-03 0.127E-03 0.760E+03   -.991E-19 -.975E-20 -.548E-02   0.709E-10 -.409E-10 -.203E-02
   -.657E-03 0.379E-03 -.156E+04   -.137E-03 0.794E-04 0.155E+04   -.186E-16 -.106E-16 0.547E+01   0.129E-08 -.742E-09 0.246E-02
   -.532E-04 0.310E-04 -.300E+04   0.113E-03 -.654E-04 0.300E+04   0.241E-16 0.136E-16 -.553E+01   -.551E-09 0.318E-09 0.286E-02
   0.599E-03 -.346E-03 -.228E+04   0.220E-03 -.127E-03 0.228E+04   -.232E-18 0.389E-19 -.133E-01   0.529E-09 -.306E-09 0.436E-02
   0.628E-03 -.363E-03 -.308E+04   0.220E-03 -.127E-03 0.307E+04   -.143E-16 -.559E-17 0.546E+01   0.140E-08 -.807E-09 0.203E-02
   -.279E-05 0.175E-05 -.379E-01   -.311E-13 0.415E-12 -.182E-11   0.309E-16 -.456E-16 0.505E-01   -.188E-07 0.109E-07 -.148E-01

 POSITION                                       TOTAL-FORCE (eV/Angst)
     -0.00000      2.56972      3.27294         0.000000     -0.000000     -0.016730
     -0.00000      2.56972     28.66943         0.000000     -0.000000     -0.006817
     -0.00000      0.00000     13.91248         0.000000     -0.000000      0.003729
     -0.00000      0.00000      7.37814         0.000000     -0.000000      0.002340
      2.22544      1.28486     24.55874        -0.000000      0.000000      0.004126
      2.22544      1.28486     18.02339        -0.000000      0.000000     -0.000318
     -0.00000      2.56972     35.20658        -0.000000      0.000000      0.001015
     -0.00000      2.56972     60.61037        -0.000000     -0.000000      0.007203
      0.00000      0.00000     45.85647         0.000000     -0.000000     -0.014645
     -0.00000      0.00000     39.31525         0.000000     -0.000000      0.000958
      2.22544      1.28486     56.49955        -0.000000     -0.000000     -0.002099
      2.22544      1.28486     49.96225         0.000000     -0.000000     -0.006143
      2.22544      1.28486     30.39070         0.000000     -0.000000      0.000294
     -0.00000      0.00000     26.61421         0.000000     -0.000000      0.002381
     -0.00000      0.00000      1.56271         0.000000     -0.000000      0.005544
     -0.00000      2.56972      9.09991        -0.000000      0.000000      0.003740
      2.22544      1.28486      5.32912         0.000000     -0.000000      0.003407
      2.22544      1.28486     12.19197         0.000000     -0.000000      0.002981
     -0.00000      0.00000     19.74629         0.000000     -0.000000     -0.004241
     -0.00000      2.56972     15.97079        -0.000000     -0.000000     -0.000452
     -0.00000      2.56972     22.83764        -0.000000      0.000000      0.000205
      2.22544      1.28486     62.32092        -0.000000      0.000000     -0.008847
     -0.00000      0.00000     58.55065         0.000000     -0.000000     -0.000083
     -0.00000      0.00000     33.48487         0.000000     -0.000000      0.001369
     -0.00000      2.56972     41.03622         0.000000     -0.000000      0.000680
      2.22544      1.28486     37.26029        -0.000000      0.000000     -0.001113
      2.22544      1.28486     44.13295         0.000000     -0.000000      0.005287
     -0.00000      0.00000     51.68138         0.000000     -0.000000      0.004701
     -0.00000      2.56972     47.90526         0.000000     -0.000000      0.005587
     -0.00000      2.56972     54.77615         0.000000     -0.000000      0.005940
    total drift:                               -0.000003      0.000002     -0.002262

  FREE ENERGIE OF THE ION-ELECTRON SYSTEM (eV)
  free  energy   TOTEN  =      -112.18179935 eV

  energy  without entropy=     -112.22247671  energy(sigma->0) =     -112.19535847

 d Force = 0.4468039E-04[-0.226E-05, 0.916E-04]  d Energy = 0.4495440E-04-0.274E-06
 d Force =-0.1659483E+02[-0.166E+02,-0.166E+02]  d Ewald  =-0.1659483E+02 0.445E-07

 reached required accuracy - stopping structural energy minimisation
 writing wavefunctions

 total charge

# of ion       s       p       d       tot
    1        1.602   1.096   9.935  12.633
    2        1.600   1.102   9.934  12.636
    3        1.599   1.102   9.934  12.636
    4        1.600   1.101   9.935  12.635
    5        1.599   1.102   9.934  12.636
    6        1.600   1.102   9.934  12.636
    7        1.600   1.102   9.934  12.636
    8        1.602   1.096   9.935  12.632
    9        1.600   1.102   9.934  12.636
   10        1.599   1.102   9.934  12.636
   11        1.600   1.100   9.935  12.635
   12        1.599   1.103   9.934  12.637
   13        1.400   1.917   0.019   3.337
   14        1.382   1.971   0.019   3.373
   15        1.394   1.932   0.017   3.343
   16        1.400   1.919   0.019   3.338
   17        1.382   1.974   0.019   3.375
   18        1.401   1.916   0.019   3.336
   19        1.400   1.917   0.019   3.337
   20        1.382   1.971   0.019   3.373
   21        1.401   1.917   0.019   3.336
   22        1.394   1.932   0.017   3.343
   23        1.382   1.974   0.019   3.374
   24        1.400   1.917   0.019   3.337
   25        1.401   1.917   0.019   3.336
   26        1.382   1.971   0.019   3.373
   27        1.400   1.918   0.019   3.337
   28        1.401   1.916   0.019   3.336
   29        1.382   1.971   0.020   3.373
   30        1.400   1.919   0.019   3.337
tot         44.285  48.079 119.554 211.919