 vasp.5.4.4.18Apr17-6-g9f103f2a35 (build Aug 29 2022 10:07:22) complex

 executed on           IFC91_ompi date 2022.09.30  23:56:30

 INCAR:
 POTCAR:   PAW_PBE Sb 06Sep2000
 POTCAR:   PAW_PBE Te 08Apr2002

 POTCAR:   PAW_PBE Sb 06Sep2000
   VRHFIN =Sb: s2p3

   TITEL  = PAW_PBE Sb 06Sep2000
   POMASS =  121.750; ZVAL   =    5.000    mass and valenz
   ENMAX  =  172.037; ENMIN  =  129.028 eV
   QCUT   =   -3.556; QGAM   =    7.112    optimization parameters

   Description
     l     E      TYP  RCUT    TYP  RCUT
     0   .000     23  2.300
     0  1.000     23  2.300
     1   .000     23  2.300
     1   .000     23  2.300
     2   .000     23  2.300
     3  -.100     23  2.300

 POTCAR:   PAW_PBE Te 08Apr2002
   VRHFIN =Te: s2p4

   TITEL  = PAW_PBE Te 08Apr2002
   POMASS =  127.600; ZVAL   =    6.000    mass and valenz
   ENMAX  =  174.982; ENMIN  =  131.236 eV
   QCUT   =   -3.586; QGAM   =    7.172    optimization parameters

   Description
     l     E      TYP  RCUT    TYP  RCUT
     0   .000     23  2.300
     0   .000     23  2.300
     1   .000     23  2.300
     1   .000     23  2.300
     2   .000     23  2.300
     3  -.100     23  2.300

 PAW_PBE Sb 06Sep2000                   :
 PAW_PBE Te 08Apr2002                   :

 POSCAR: Sb12 Te18
  positions in direct lattice
 exchange correlation table for  LEXCH =        8
   RHO(1)=    0.500       N(1)  =     2000
   RHO(2)=  100.500       N(2)  =     4000

 ion  position               nearest neighbor table
   1  0.667  0.063  0.224-  23 3.03  14 3.03  15 3.19  24 3.19
   2  0.667  0.270  0.026-  13 3.03  22 3.03  27 3.19  18 3.19
   3  0.000  0.397  0.058-  17 3.03  26 3.03  18 3.19  27 3.19
   4  0.000  0.603  0.109-  16 3.03  25 3.03  21 3.19  30 3.19
   5  0.333  0.730  0.141-  20 3.03  29 3.03  30 3.19  21 3.19
   6  0.333  0.937  0.192-  28 3.03  19 3.03  15 3.19  24 3.19
   7  0.667  0.063  0.474-  14 3.03  23 3.03  24 3.19  15 3.19
   8  0.667  0.270  0.276-  22 3.03  13 3.03  18 3.19  27 3.19
   9  0.000  0.397  0.308-  26 3.03  17 3.03  27 3.19  18 3.19
  10  0.000  0.603  0.359-  25 3.03  16 3.03  30 3.19  21 3.19
  11  0.333  0.730  0.391-  29 3.03  20 3.03  21 3.19  30 3.19
  12  0.333  0.937  0.442-  19 3.03  28 3.03  24 3.19  15 3.19
  13  0.000  0.215  0.012-   2 3.03   8 3.03
  14  0.333  0.118  0.238-   7 3.03   1 3.03
  15  0.000  0.000  0.208-   1 3.19   6 3.19  12 3.19   7 3.19
  16  0.333  0.549  0.096-   4 3.03  10 3.03
  17  0.667  0.451  0.071-   3 3.03   9 3.03
  18  0.333  0.333  0.042-   8 3.19   2 3.19   3 3.19   9 3.19
  19  0.667  0.882  0.179-  12 3.03   6 3.03
  20  0.000  0.785  0.154-   5 3.03  11 3.03
  21  0.667  0.667  0.125-  11 3.19   5 3.19   4 3.19  10 3.19
  22  0.000  0.215  0.262-   8 3.03   2 3.03
  23  0.333  0.118  0.488-   1 3.03   7 3.03
  24  0.000  0.000  0.458-   7 3.19  12 3.19   6 3.19   1 3.19
  25  0.333  0.549  0.346-  10 3.03   4 3.03
  26  0.667  0.451  0.321-   9 3.03   3 3.03
  27  0.333  0.333  0.292-   2 3.19   8 3.19   9 3.19   3 3.19
  28  0.667  0.882  0.429-   6 3.03  12 3.03
  29  0.000  0.785  0.404-  11 3.03   5 3.03
  30  0.667  0.667  0.375-   5 3.19  11 3.19  10 3.19   4 3.19

  LATTYP: Found a base centered monoclinic cell.
 ALAT       =    62.8240423893
 B/A-ratio  =     0.1193953554
 C/A-ratio  =     1.0000000000
 COS(beta)  =    -0.9835112059

  Lattice vectors:

 A1 = (  -3.7504494696,  31.3373012840,   2.1653229573)
 A2 = (  -0.0000000000,  31.3373012840,  -4.3306459950)
 A3 = (  -3.7504494696, -62.6746025679,  -2.1653230376)

Analysis of symmetry for initial positions (statically):
 Subroutine PRICEL returns:
 Original cell was already a primitive cell.

 Routine SETGRP: Setting up the symmetry group for a
 base centered monoclinic supercell.

 Subroutine GETGRP returns: Found  2 space group operations
 (whereof  1 operations were pure point group operations)
 out of a pool of  4 trial point group operations.

The static configuration has the point symmetry C_1 .
 The point group associated with its full space group is S_2 .

Analysis of symmetry for dynamics (positions and initial velocities):
 Subroutine PRICEL returns:
 Original cell was already a primitive cell.

[...]

The dynamic configuration has the point symmetry C_1 .
 The point group associated with its full space group is S_2 .

Analysis of constrained symmetry for selective dynamics:
 Subroutine PRICEL returns:
 Original cell was already a primitive cell.

 Routine SETGRP: Setting up the symmetry group for a
 base centered monoclinic supercell.

 Subroutine GETGRP returns: Found  1 space group operations
 (whereof  1 operations were pure point group operations)
 out of a pool of  4 trial point group operations.

The constrained configuration has the point symmetry C_1 .

 Subroutine INISYM returns: Found  1 space group operations
 (whereof  1 operations are pure point group operations),
 and found     1 'primitive' translations

 KPOINTS: k-point density of [50, 50, 50]/[a, b, c

Automatic generation of k-mesh.
Space group operators:
 irot       det(A)        alpha          n_x          n_y          n_z        tau_x        tau_y        tau_z
    1     1.000000     0.000000     1.000000     0.000000     0.000000     0.000000     0.000000     0.000000

 Subroutine IBZKPT returns following result:

 Found     22 irreducible k-points:

 Following reciprocal coordinates:
            Coordinates               Weight
  0.000000  0.000000  0.000000      1.000000
  0.142857  0.000000  0.000000      2.000000
  0.285714 -0.000000  0.000000      2.000000
  0.428571 -0.000000  0.000000      2.000000
  0.000000  0.500000  0.000000      1.000000
  0.142857  0.500000  0.000000      2.000000
  0.285714  0.500000  0.000000      2.000000
  0.428571  0.500000  0.000000      2.000000
 -0.000000 -0.000000  0.333333      2.000000
  0.142857 -0.000000  0.333333      2.000000
  0.285714 -0.000000  0.333333      2.000000
  0.428571 -0.000000  0.333333      2.000000
 -0.428571 -0.000000  0.333333      2.000000
 -0.285714 -0.000000  0.333333      2.000000
 -0.142857 -0.000000  0.333333      2.000000
 -0.000000  0.500000  0.333333      2.000000
  0.142857  0.500000  0.333333      2.000000
  0.285714  0.500000  0.333333      2.000000
  0.428571  0.500000  0.333333      2.000000
 -0.428571  0.500000  0.333333      2.000000
 -0.285714  0.500000  0.333333      2.000000
 -0.142857  0.500000  0.333333      2.000000

 Following cartesian coordinates:
            Coordinates               Weight
  0.000000  0.000000  0.000000      1.000000
  0.038091  0.000000  0.000000      2.000000
  0.076181  0.000000  0.000000      2.000000
  0.114272  0.000000  0.000000      2.000000
  0.000000  0.015955  0.000000      1.000000
  0.038091  0.015955  0.000000      2.000000
  0.076181  0.015955  0.000000      2.000000
  0.114272  0.015955  0.000000      2.000000
  0.033329  0.002659  0.019243      2.000000
  0.071420  0.002659  0.019243      2.000000
  0.109511  0.002659  0.019243      2.000000
  0.147601  0.002659  0.019243      2.000000
 -0.080943  0.002659  0.019243      2.000000
 -0.042852  0.002659  0.019243      2.000000
 -0.004761  0.002659  0.019243      2.000000
  0.033329  0.018615  0.019243      2.000000
  0.071420  0.018615  0.019243      2.000000
  0.109511  0.018615  0.019243      2.000000
  0.147601  0.018615  0.019243      2.000000
 -0.080943  0.018615  0.019243      2.000000
 -0.042852  0.018615  0.019243      2.000000
 -0.004761  0.018615  0.019243      2.000000

 SYSTEM =  Tetradymite Slab
 POSCAR =  Sb12 Te18

 Startparameter for this run:
   NWRITE =      2    write-flag & timer
   PREC   = accura    normal or accurate (medium, high low for compatibility)
   ISTART =      0    job   : 0-new  1-cont  2-samecut
   ICHARG =      2    charge: 1-file 2-atom 10-const
   ISPIN  =      1    spin polarized calculation?
   LNONCOLLINEAR =      F non collinear calculations
   LSORBIT =      F    spin-orbit coupling
   INIWAV =      1    electr: 0-lowe 1-rand  2-diag
   LASPH  =      F    aspherical Exc in radial PAW
   METAGGA=      F    non-selfconsistent MetaGGA calc.

 Electronic Relaxation 1
   ENCUT  =  300.0 eV  22.05 Ry    4.70 a.u.  10.59 44.68 24.46*2*pi/ulx,y,z
   ENINI  =  300.0     initial cutoff
   ENAUG  =  380.5 eV  augmentation charge cutoff
   NELM   =     80;   NELMIN=  2; NELMDL= -5     # of ELM steps
   EDIFF  = 0.1E-05   stopping-criterion for ELM
   LREAL  =      F    real-space projection
   NLSPLINE    = F    spline interpolate recip. space projectors
   LCOMPAT=      F    compatible to vasp.4.4
   GGA_COMPAT  = T    GGA compatible to vasp.4.4-vasp.4.6
   LMAXPAW     = -100 max onsite density
   LMAXMIX     =    2 max onsite mixed and CHGCAR
   VOSKOWN=      0    Vosko Wilk Nusair interpolation
   ROPT   =    0.00000   0.00000
 Ionic relaxation
   EDIFFG = -.1E-01   stopping-criterion for IOM
   NSW    =     20    number of steps for IOM
   NBLOCK =      1;   KBLOCK =     20    inner block; outer block
   IBRION =      2    ionic relax: 0-MD 1-quasi-New 2-CG
   NFREE  =      1    steps in history (QN), initial steepest desc. (CG)
   ISIF   =      2    stress and relaxation
   IWAVPR =     11    prediction:  0-non 1-charg 2-wave 3-comb
   ISYM   =      2    0-nonsym 1-usesym 2-fastsym
   LCORR  =      T    Harris-Foulkes like correction to forces

   POTIM  = 0.5000    time-step for ionic-motion
   TEIN   =    0.0    initial temperature
   TEBEG  =    0.0;   TEEND  =   0.0 temperature during run
   SMASS  =  -3.00    Nose mass-parameter (am)
   estimated Nose-frequenzy (Omega)   =  0.10E-29 period in steps =****** mass=  -0.129E-26a.u.
   SCALEE = 1.0000    scale energy and forces
   NPACO  =    256;   APACO  = 16.0  distance and # of slots for P.C.
   PSTRESS=    0.0 pullay stress

  Mass of Ions in am
   POMASS = 121.75127.60
  Ionic Valenz
   ZVAL   =   5.00  6.00
  Atomic Wigner-Seitz radii
  virtual crystal weights
   VCA    =   1.00  1.00
   NELECT =     168.0000    total number of electrons
   NUPDOWN=      -1.0000    fix difference up-down

 DOS related values:
   EMIN   =  10.00;   EMAX   =-10.00  energy-range for DOS
   EFERMI =   0.00
   ISMEAR =     1;   SIGMA  =   0.20  broadening in eV -4-tet -1-fermi 0-gaus

 Electronic relaxation 2 (details)
   IALGO  =     68    algorithm
   LDIAG  =      T    sub-space diagonalisation (order eigenvalues)
   LSUBROT=      F    optimize rotation matrix (better conditioning)
   TURBO    =      0    0=normal 1=particle mesh
   IRESTART =      0    0=no restart 2=restart with 2 vectors
   NREBOOT  =      0    no. of reboots
   NMIN     =      0    reboot dimension
   EREF     =   0.00    reference energy to select bands
   IMIX   =      4    mixing-type and parameters
     AMIX     =   0.40;   BMIX     =  1.00
     AMIX_MAG =   1.60;   BMIX_MAG =  1.00
     AMIN     =   0.10
     WC   =   100.;   INIMIX=   1;  MIXPRE=   1;  MAXMIX= -45

 Intra band minimization:
   WEIMIN = 0.0010     energy-eigenvalue tresh-hold
   EBREAK =  0.20E-08  absolut break condition
   DEPER  =   0.30     relativ break condition

   TIME   =   0.40     timestep for ELM

  volume/ion in A,a.u.               =      67.86       457.97
[...]
  (g-gl).g = 0.753E-01      g.g   = 0.845E-01  gl.gl    = 0.407E+00
 g(Force)  = 0.845E-01   g(Stress)= 0.000E+00 ortho     =-0.832E-04
 gamma     =   0.18504
 trial     =   1.54121
 opt step  =   3.37724  (harmonic =   3.47474) maximal distance =0.10707032
 next E    =  -104.150757   (d E  =  -0.14510)

[...]

 d Force = 0.7172106E-01[ 0.426E-01, 0.101E+00]  d Energy = 0.7165721E-01 0.638E-04
 d Force = 0.9978307E+01[ 0.990E+01, 0.101E+02]  d Ewald  = 0.9978016E+01 0.291E-03

[...]

 d Force =-0.2612042E-01[-0.137E+00, 0.851E-01]  d Energy =-0.2723978E-01 0.112E-02
 d Force = 0.1948350E+02[ 0.192E+02, 0.198E+02]  d Ewald  = 0.1948044E+02 0.306E-02

[...]

 Conjugate gradient step on ions:
 trial-energy change:   -0.052155  1 .order   -0.052052   -0.060901   -0.043203
  (g-gl).g = 0.498E-01      g.g   = 0.486E-01  gl.gl    = 0.500E-01
 g(Force)  = 0.486E-01   g(Stress)= 0.000E+00 ortho     =-0.290E-03
 gamma     =   0.99540
 trial     =   1.25997
 opt step  =   4.02558  (harmonic =   4.33569) maximal distance =0.11468739
 next E    =  -104.468031   (d E  =  -0.10066)

[...]

 eigenvalue-minimisations  :  5967
 total energy-change (2. order) : 0.8858669E-06  (-0.1558315E-05)
 number of electron     168.0000000 magnetization
 augmentation part      -31.0733250 magnetization

 Broyden mixing:
  rms(total) = 0.55533E-03    rms(broyden)= 0.55529E-03
  rms(prec ) = 0.61580E-03
  weight for this iteration     100.00

 eigenvalues of (default mixing * dielectric matrix)
  average eigenvalue GAMMA=   1.4939
  2.5441  1.7078  1.0523  0.6713

[...]

--------------------------------------- Iteration     20(   6)  ---------------------------------------

 eigenvalue-minimisations  :  4210
 total energy-change (2. order) :-0.9335690E-07  (-0.2624039E-06)
 number of electron     168.0000000 magnetization
 augmentation part      -31.0733250 magnetization

 Free energy of the ion-electron system (eV)
  alpha Z        PSCENC =        -5.40434045
  Ewald energy   TEWEN  =     -2901.73992617
  -Hartree energ DENC   =     -2540.30545679
  -exchange      EXHF   =         0.00000000
  -V(xc)+E(xc)   XCENC  =     -1062.02904410
  PAW double counting   =      3005.62017441    -1666.17061859
  entropy T*S    EENTRO =         0.07681993
  eigenvalues    EBANDS =      -751.03146855
  atomic energy  EATOM  =      5816.47334678
  Solvation  Ediel_sol  =         0.00000000
  free energy    TOTEN  =      -104.51051354 eV

  energy without entropy =     -104.58733347  energy(sigma->0) =     -104.53612018

 average (electrostatic) potential at core
  the test charge radii are     1.1712  1.1897
  (the norm of the test charge is              1.0000)
       1 -93.0273       2 -92.6543       3 -92.7465       4 -92.7152       5 -92.7260
       6 -92.6839       7 -92.6667       8 -92.7296       9 -92.7680      10 -92.6858
      11 -92.7541      12 -92.7210      13 -93.4859      14 -93.4330      15 -93.9400
      16 -93.5009      17 -93.5395      18 -93.8822      19 -93.5356      20 -93.5703
      21 -93.8934      22 -93.3755      23 -93.4531      24 -93.8706      25 -93.5523
      26 -93.4279      27 -94.0591      28 -93.5257      29 -93.5240      30 -93.8967

 E-fermi :   0.3239     XC(G=0):  -5.6446     alpha+bet : -5.2823

[...]

 k-point    22 :      -0.1429    0.5000    0.3333
  band No.  band energies     occupation
      1     -11.9036      2.00000
      2     -11.8549      2.00000
      3     -11.7357      2.00000
      4     -11.2386      2.00000
      5     -11.1033      2.00000
      6     -11.0494      2.00000
      7     -10.7557      2.00000
      8     -10.6617      2.00000
      9     -10.5717      2.00000
     10     -10.2868      2.00000
     11     -10.2274      2.00000
     12     -10.1513      2.00000
     13     -10.1002      2.00000
     14     -10.0295      2.00000
     15      -9.9866      2.00000
     16      -9.9296      2.00000
     17      -9.8983      2.00000
     18      -9.8105      2.00000
     19      -8.6512      2.00000
     20      -8.6163      2.00000
     21      -8.5951      2.00000
     22      -8.3222      2.00000
     23      -8.2994      2.00000
     24      -8.2401      2.00000
     25      -7.6483      2.00000
     26      -7.5573      2.00000
     27      -7.4672      2.00000
     28      -6.8315      2.00000
     29      -6.7231      2.00000
     30      -6.6293      2.00000
     31      -4.0345      2.00000
     32      -3.8822      2.00000
     33      -3.7536      2.00000
     34      -3.3915      2.00000
     35      -3.3283      2.00000
     36      -3.2352      2.00000
     37      -3.0856      2.00000
     38      -3.0210      2.00000
     39      -2.9800      2.00000
     40      -2.9537      2.00000
     41      -2.9158      2.00000
     42      -2.8677      2.00000
     43      -2.7849      2.00000
     44      -2.6610      2.00000
     45      -2.4824      2.00000
     46      -2.4607      2.00000
     47      -2.3956      2.00000
     48      -2.3716      2.00000
     49      -2.2787      2.00000
     50      -2.2024      2.00000
     51      -2.1744      2.00000
     52      -2.1166      2.00000
     53      -2.0690      2.00000
     54      -1.9720      2.00000
     55      -1.9540      2.00000
     56      -1.9283      2.00000
     57      -1.8469      2.00000
     58      -1.7032      2.00000
     59      -1.6462      2.00000
     60      -1.5546      2.00000
[...]
    114       3.2795     -0.00000
    115       3.3214     -0.00000
    116       3.3899     -0.00000
    117       3.4762     -0.00000
    118       4.0595     -0.00000
    119       4.3847     -0.00000
    120       4.4628     -0.00000
    121       4.5443     -0.00000
    122       4.6711     -0.00000
    123       4.8660     -0.00000
    124       4.9303     -0.00000
    125       5.1958     -0.00000
    126       5.2979     -0.00000
    127       5.3285     -0.00000
    128       5.4922     -0.00000

 soft charge-density along one line, spin component           1
         0         1         2         3         4         5         6         7         8         9
 total charge-density along one line

------------------------ aborting loop because EDIFF is reached ----------------------------------------

[...]

  FORCE on cell =-STRESS in cart. coord.  units (eV):
  Direction    XX          YY          ZZ          XY          YZ          ZX
  Alpha Z    -5.40434    -5.40434    -5.40434
  Ewald   -2972.37443   439.51355  -368.89621  -239.04356    54.70534 -2221.69887
  Hartree  -643.04645  1910.69692  1272.65338  -165.58628    -5.67748 -1640.16035
  E(xc)    -663.44162  -659.07278  -659.91044    -0.84099     1.34352    -3.05795
  Local     639.48250 -5282.15362 -3855.37723   410.33506   -56.61631  3840.45717
  n-local  3003.16236  2978.72184  2988.84140    -0.17247    -0.21605    13.39813
  augment  -689.61478  -679.01419  -683.50152     0.60193    -0.62158    -5.30732
  Kinetic  1329.64190  1297.35487  1314.71779    -9.13320    11.94846    12.23378
  Fock        0.00000     0.00000     0.00000     0.00000     0.00000     0.00000
  Total      -1.59487     0.64224     3.12284    -3.83950     4.86590    -4.13540
  in kB      -1.25510     0.50542     2.45755    -3.02154     3.82927    -3.25440

 VOLUME and BASIS-vectors are now :
  energy-cutoff  :      300.00
  volume of cell :     2035.91
      direct lattice vectors                 reciprocal lattice vectors
     3.750449470  0.000000000 -6.495968952     0.266634708  0.000000000  0.000000000
    -0.000000000 31.337301284 -4.330645995     0.000000000  0.031910853  0.000000000
     0.000000000  0.000000000 17.322583980     0.099988015  0.007977713  0.057728108

  length of vectors
     7.500898870 31.635122040 17.322583980     0.266634708  0.031910853  0.115731506

 FORCES acting on ions
    electron-ion (+dipol)            ewald-force                    non-local-force                 convergence-correction
   0.505E+02 -.103E+02 0.354E+02   -.554E+02 0.894E+01 -.414E+02   0.632E+01 0.169E+01 0.722E+01   0.230E-05 0.105E-02 -.303E-03
   0.689E+02 0.246E+02 0.335E+02   -.782E+02 -.231E+02 -.358E+02   0.932E+01 -.152E+01 0.229E+01   -.308E-04 0.107E-02 0.182E-03
   0.634E+02 -.180E+02 0.428E+02   -.702E+02 0.166E+02 -.497E+02   0.676E+01 0.143E+01 0.696E+01   0.732E-03 0.115E-02 -.291E-05
   0.659E+02 0.837E+01 0.319E+02   -.753E+02 -.593E+01 -.340E+02   0.930E+01 -.245E+01 0.217E+01   -.163E-04 -.157E-02 -.376E-03
   0.619E+02 -.195E+02 0.420E+02   -.686E+02 0.176E+02 -.492E+02   0.668E+01 0.194E+01 0.728E+01   -.420E-03 -.299E-02 -.167E-04
   0.625E+02 0.178E+02 0.330E+02   -.723E+02 -.156E+02 -.352E+02   0.973E+01 -.218E+01 0.211E+01   0.130E-04 0.121E-02 -.278E-03
   -.639E+02 -.228E+02 -.315E+02   0.735E+02 0.214E+02 0.331E+02   -.965E+01 0.140E+01 -.157E+01   0.266E-03 0.145E-02 0.335E-03
   -.595E+02 0.180E+02 -.362E+02   0.666E+02 -.172E+02 0.428E+02   -.667E+01 -.986E+00 -.718E+01   0.417E-04 0.106E-02 0.180E-04
   -.675E+02 -.201E+02 -.368E+02   0.766E+02 0.194E+02 0.394E+02   -.953E+01 0.673E+00 -.191E+01   -.414E-03 0.123E-02 0.753E-04
   -.527E+02 0.166E+02 -.350E+02   0.591E+02 -.146E+02 0.428E+02   -.635E+01 -.197E+01 -.779E+01   0.326E-03 -.153E-02 0.379E-03
   -.674E+02 -.141E+02 -.339E+02   0.769E+02 0.119E+02 0.362E+02   -.956E+01 0.218E+01 -.220E+01   0.301E-03 -.343E-02 0.461E-03
   -.615E+02 0.148E+02 -.438E+02   0.682E+02 -.129E+02 0.511E+02   -.662E+01 -.193E+01 -.726E+01   0.424E-03 0.151E-02 -.118E-03
   0.618E+02 0.670E+02 0.445E+02   -.639E+02 -.715E+02 -.475E+02   0.210E+01 0.456E+01 0.305E+01   -.200E-03 0.748E-03 0.431E-03
   0.437E+02 -.393E+02 0.230E+02   -.475E+02 0.443E+02 -.237E+02   0.371E+01 -.499E+01 0.618E+00   0.987E-04 0.118E-02 0.271E-03
   0.699E+02 0.471E+01 0.372E+02   -.746E+02 -.497E+01 -.404E+02   0.476E+01 0.293E+00 0.319E+01   0.135E-03 0.226E-02 -.146E-03
   0.606E+02 0.419E+02 0.411E+02   -.628E+02 -.472E+02 -.429E+02   0.250E+01 0.536E+01 0.144E+01   -.388E-03 -.881E-03 -.624E-04
   0.656E+02 -.453E+02 0.343E+02   -.690E+02 0.500E+02 -.350E+02   0.345E+01 -.470E+01 0.545E+00   0.343E-03 0.636E-03 0.386E-03
   0.644E+02 0.182E+01 0.369E+02   -.690E+02 -.176E+01 -.397E+02   0.463E+01 -.647E-01 0.279E+01   -.291E-04 0.185E-02 0.343E-04
   0.584E+02 0.448E+02 0.357E+02   -.606E+02 -.498E+02 -.383E+02   0.224E+01 0.506E+01 0.262E+01   -.276E-03 0.708E-03 -.167E-03
   0.583E+02 -.477E+02 0.307E+02   -.614E+02 0.530E+02 -.311E+02   0.319E+01 -.529E+01 0.408E+00   -.321E-03 -.321E-02 0.221E-03
   0.780E+02 -.267E+01 0.428E+02   -.831E+02 0.302E+01 -.459E+02   0.505E+01 -.387E+00 0.307E+01   -.112E-02 -.295E-02 -.169E-03
   -.388E+02 0.470E+02 -.183E+02   0.422E+02 -.521E+02 0.190E+02   -.342E+01 0.508E+01 -.739E+00   0.316E-03 0.540E-03 0.165E-03
   -.531E+02 -.558E+02 -.487E+02   0.548E+02 0.597E+02 0.517E+02   -.290E+01 -.461E+01 -.308E+01   0.489E-03 0.959E-03 -.112E-03
   -.818E+02 -.645E+01 -.373E+02   0.863E+02 0.705E+01 0.396E+02   -.483E+01 -.232E+00 -.334E+01   0.161E-03 0.189E-02 0.310E-03
   -.588E+02 0.412E+02 -.330E+02   0.621E+02 -.464E+02 0.331E+02   -.340E+01 0.519E+01 -.704E-01   0.620E-03 -.369E-03 0.121E-04
   -.650E+02 -.470E+02 -.404E+02   0.676E+02 0.520E+02 0.430E+02   -.258E+01 -.493E+01 -.260E+01   -.137E-03 0.887E-03 -.370E-03
   -.657E+02 0.122E+01 -.385E+02   0.704E+02 -.132E+01 0.412E+02   -.472E+01 0.984E-01 -.268E+01   -.471E-03 0.175E-02 -.323E-03
   -.576E+02 0.464E+02 -.307E+02   0.606E+02 -.518E+02 0.312E+02   -.296E+01 0.532E+01 -.503E+00   -.158E-03 0.872E-03 -.784E-03
   -.574E+02 -.456E+02 -.346E+02   0.596E+02 0.508E+02 0.371E+02   -.225E+01 -.520E+01 -.247E+01   -.539E-03 -.329E-02 0.239E-03
   -.822E+02 -.409E+00 -.460E+02   0.874E+02 0.380E+00 0.487E+02   -.523E+01 0.287E-01 -.260E+01   0.108E-02 -.287E-02 0.693E-03
   0.904E+00 0.111E+01 0.234E+00   0.142E-13 -.142E-12 0.355E-13   -.904E+00 -.111E+01 -.236E+00   0.829E-03 0.937E-03 0.983E-03

 POSITION                                       TOTAL-FORCE (eV/Angst)
      2.50030      1.98657     -0.72178         1.359162      0.331159      1.264250
      2.74661      8.41712     -5.07824        -0.008145     -0.025740     -0.028431
      0.08135     12.41623     -0.45169         0.004287      0.028669      0.012076
      0.22464     19.01807     -0.91957        -0.052662     -0.013059      0.042866
      1.13864     22.82910     -2.42272        -0.020923      0.046942      0.015653
      1.70727     29.40582     -3.16679        -0.033308     -0.016891     -0.098162
      2.32134      2.06434      3.62759         0.017645      0.000696      0.030258
      2.50030      8.45922     -0.72178         0.398080     -0.176175     -0.623851
     -0.00000     12.43233      3.60887        -0.378970      0.015084      0.665858
     -0.18595     18.74279      3.20898         0.015301      0.036106      0.036161
      0.88203     22.75473      1.78307        -0.028541     -0.029467      0.034137
      1.43059     29.38171      0.99866         0.014982      0.019982      0.028473
      0.25953      6.87103     -0.77264        -0.085240      0.025047      0.058233
      1.21424      3.44230      1.47271        -0.056820      0.067918     -0.081140
      0.29808      0.02280      3.60638         0.028667      0.032937      0.012378
      1.25015     17.19508     -2.88709         0.283138      0.018711     -0.352457
      2.54883     13.99741     -4.79520         0.012377     -0.015789     -0.107473
      1.65018     10.44126     -2.65534         0.004078      0.001364      0.005206
      2.88454     27.82789     -5.29928         0.031111      0.036825      0.016234
     -0.02672     24.39320     -0.27449         0.009745     -0.019749      0.024951
      2.51551     20.84925     -4.94520        -0.050623     -0.037020      0.037905
     -0.00854      6.90149      3.52085         0.020105     -0.041740      0.032769
      1.25015      3.69643      5.77420        -1.154603     -0.670618     -0.078809
      0.00000      0.00000      7.93952        -0.259445      0.366748     -1.045115
      1.14775     17.32196      1.07709        -0.140711     -0.007047      0.026622
      2.44518     13.86181     -0.59484         0.039795      0.017756      0.022164
      1.07445     10.41842      1.36785        -0.015960     -0.006274     -0.013795
      2.56210     27.73165     -1.10579         0.035081      0.017598      0.005478
     -0.32802     24.41039      3.83829        -0.013145     -0.000693     -0.010572
      2.36779     20.88309     -0.77132         0.025543     -0.003282      0.068133
    total drift:                               -0.000099     -0.000592     -0.000860

  FREE ENERGIE OF THE ION-ELECTRON SYSTEM (eV)
  free  energy   TOTEN  =      -104.51051354 eV

  energy  without entropy=     -104.58733347  energy(sigma->0) =     -104.53612018

 d Force = 0.1514616E-01[ 0.122E-01, 0.181E-01]  d Energy = 0.1516306E-01-0.169E-04
 d Force =-0.2379741E+00[-0.241E+00,-0.235E+00]  d Ewald  =-0.2379808E+00 0.667E-05

 Conjugate gradient step on ions:
 trial-energy change:   -0.015163  1 .order   -0.015146   -0.018083   -0.012209
  (g-gl).g = 0.100E-01      g.g   = 0.101E-01  gl.gl    = 0.120E-01
 g(Force)  = 0.101E-01   g(Stress)= 0.000E+00 ortho     = 0.526E-03
 gamma     =   0.83153
 trial     =   1.71606
 opt step  =   5.28335  (harmonic =   5.28335) maximal distance =0.04663163
 next E    =  -104.523187   (d E  =  -0.02784)

 writing wavefunctions

 total charge

# of ion       s       p       d       tot
    1        1.257   0.974   0.030   2.261
    2        1.246   1.045   0.040   2.332
    3        1.247   1.041   0.041   2.329
    4        1.243   1.058   0.044   2.345
    5        1.241   1.058   0.041   2.340
    6        1.241   1.058   0.042   2.341
    7        1.248   1.046   0.042   2.336
    8        1.246   1.041   0.043   2.330
    9        1.246   1.042   0.043   2.331
   10        1.245   1.048   0.039   2.332
   11        1.243   1.051   0.041   2.335
   12        1.243   1.053   0.040   2.336
   13        1.394   1.945   0.021   3.360
   14        1.398   1.932   0.021   3.352
   15        1.401   1.933   0.028   3.362
   16        1.397   1.939   0.022   3.358
   17        1.398   1.938   0.022   3.358
   18        1.399   1.930   0.026   3.355
   19        1.398   1.937   0.023   3.358
   20        1.399   1.934   0.023   3.356
   21        1.399   1.933   0.026   3.358
   22        1.401   1.920   0.021   3.342
   23        1.395   1.910   0.015   3.321
   24        1.401   1.904   0.022   3.327
   25        1.400   1.934   0.024   3.357
   26        1.395   1.936   0.020   3.351
   27        1.402   1.936   0.031   3.369
   28        1.399   1.935   0.023   3.357
   29        1.398   1.937   0.023   3.358
   30        1.400   1.936   0.027   3.364
tot         40.121  47.284   0.906  88.310