 vasp.5.4.4.18Apr17-6-g9f103f2a35 (build Aug 29 2022 10:07:22) complex

 executed on           IFC91_ompi date 2022.09.30  20:31:06

 INCAR:
 POTCAR:   PAW_PBE Bi_d 06Sep2000
 POTCAR:   PAW_PBE Se 06Sep2000

 POTCAR:   PAW_PBE Bi_d 06Sep2000
   VRHFIN =Bi:

   TITEL  = PAW_PBE Bi_d 06Sep2000
   POMASS =  208.980; ZVAL   =   15.000    mass and valenz
   ENMAX  =  242.851; ENMIN  =  182.138 eV
   QCUT   =   -4.225; QGAM   =    8.450    optimization parameters

   Description
     l     E      TYP  RCUT    TYP  RCUT
     2   .000     23  2.500
     2  -.100     23  2.500
     0   .000     23  2.500
     0   .500     23  2.500
     1   .000     23  2.500
     1  1.000     23  2.500
     3  -.100      7  2.500

 POTCAR:   PAW_PBE Se 06Sep2000
   VRHFIN =Se: s2p4

   TITEL  = PAW_PBE Se 06Sep2000
   POMASS =   78.960; ZVAL   =    6.000    mass and valenz
   ENMAX  =  211.534; ENMIN  =  158.651 eV
   QCUT   =   -3.943; QGAM   =    7.886    optimization parameters

   Description
     l     E      TYP  RCUT    TYP  RCUT
     0   .000     23  2.100
     0   .000     23  2.100
     1   .000     23  2.100
     1   .000     23  2.100
     2   .000     23  2.100
     3  -.100      7  2.100

 PAW_PBE Bi_d 06Sep2000                 :
 PAW_PBE Se 06Sep2000                   :

 POSCAR: Bi12 Se18
  positions in direct lattice
 exchange correlation table for  LEXCH =        8
   RHO(1)=    0.500       N(1)  =     2000
   RHO(2)=  100.500       N(2)  =     4000

 ion  position               nearest neighbor table
   1  0.333  0.667  0.224-  14 2.88  14 2.88  14 2.88  13 3.11  13 3.11  13 3.11
   2  0.333  0.667  0.026-  15 2.88  15 2.88  15 2.88  16 3.11  16 3.11  16 3.11
   3  0.000  0.000  0.057-  17 2.88  17 2.88  17 2.88  16 3.11  16 3.11  16 3.11
   4  0.000  0.000  0.109-  18 2.88  18 2.88  18 2.88  19 3.11  19 3.11  19 3.11
   5  0.667  0.333  0.141-  20 2.88  20 2.88  20 2.88  19 3.11  19 3.11  19 3.11
   6  0.667  0.333  0.193-  21 2.88  21 2.88  21 2.88  13 3.11  13 3.11  13 3.11
   7  0.333  0.667  0.474-  23 2.88  23 2.88  23 2.88  22 3.11  22 3.11  22 3.11
   8  0.333  0.667  0.276-  24 2.88  24 2.88  24 2.88  25 3.11  25 3.11  25 3.11
   9  0.000  0.000  0.307-  26 2.88  26 2.88  26 2.88  25 3.11  25 3.11  25 3.11
  10  0.000  0.000  0.359-  27 2.88  27 2.88  27 2.88  28 3.11  28 3.11  28 3.11
  11  0.667  0.333  0.391-  29 2.88  29 2.88  29 2.88  28 3.11  28 3.11  28 3.11
  12  0.667  0.333  0.443-  30 2.88  30 2.88  30 2.88  22 3.11  22 3.11  22 3.11
  13  0.000  0.000  0.208-   1 3.11   6 3.11   1 3.11   1 3.11   6 3.11   6 3.11
  14  0.667  0.333  0.237-   1 2.88   1 2.88   1 2.88
  15  0.000  0.000  0.013-   2 2.88   2 2.88   2 2.88
  16  0.667  0.333  0.042-   2 3.11   2 3.11   2 3.11   3 3.11   3 3.11   3 3.11
  17  0.333  0.667  0.070-   3 2.88   3 2.88   3 2.88
  18  0.667  0.333  0.097-   4 2.88   4 2.88   4 2.88
  19  0.333  0.667  0.125-   5 3.11   5 3.11   5 3.11   4 3.11   4 3.11   4 3.11
  20  0.000  0.000  0.153-   5 2.88   5 2.88   5 2.88
  21  0.333  0.667  0.180-   6 2.88   6 2.88   6 2.88
  22  0.000  0.000  0.458-   7 3.11  12 3.11   7 3.11   7 3.11  12 3.11  12 3.11
  23  0.667  0.333  0.487-   7 2.88   7 2.88   7 2.88
  24  0.000  0.000  0.263-   8 2.88   8 2.88   8 2.88
  25  0.667  0.333  0.292-   8 3.11   8 3.11   8 3.11   9 3.11   9 3.11   9 3.11
  26  0.333  0.667  0.320-   9 2.88   9 2.88   9 2.88
  27  0.667  0.333  0.347-  10 2.88  10 2.88  10 2.88
  28  0.333  0.667  0.375-  11 3.11  11 3.11  11 3.11  10 3.11  10 3.11  10 3.11
  29  0.000  0.000  0.403-  11 2.88  11 2.88  11 2.88
  30  0.333  0.667  0.430-  12 2.88  12 2.88  12 2.88

  LATTYP: Found a hexagonal cell.
 ALAT       =     4.1925838446
 C/A-ratio  =    29.7425919902

  Lattice vectors:

 A1 = (   4.1925840252,   0.0000000000,   0.0000000000)
 A2 = (  -2.0962921931,   3.6308841690,   0.0000000000)
 A3 = (   0.0000000000,   0.0000000000, 124.6983106747)

Analysis of symmetry for initial positions (statically):
 Subroutine PRICEL returns:
 Original cell was already a primitive cell.

 Routine SETGRP: Setting up the symmetry group for a
 hexagonal supercell.

 Subroutine GETGRP returns: Found 12 space group operations
 (whereof  6 operations were pure point group operations)
 out of a pool of 24 trial point group operations.

The static configuration has the point symmetry C_3v.
 The point group associated with its full space group is D_3d.

Analysis of symmetry for dynamics (positions and initial velocities):
 Subroutine PRICEL returns:
 Original cell was already a primitive cell.

[...]

The dynamic configuration has the point symmetry C_3v.
 The point group associated with its full space group is D_3d.

Analysis of constrained symmetry for selective dynamics:
 Subroutine PRICEL returns:
 Original cell was already a primitive cell.

 Routine SETGRP: Setting up the symmetry group for a
 hexagonal supercell.

 Subroutine GETGRP returns: Found  6 space group operations
 (whereof  6 operations were pure point group operations)
 out of a pool of 24 trial point group operations.

The constrained configuration has the point symmetry C_3v.

 Subroutine INISYM returns: Found  6 space group operations
 (whereof  6 operations are pure point group operations),
 and found     1 'primitive' translations

 KPOINTS: k-point density of [50, 50, 50]/[a, b, c

Automatic generation of k-mesh.
Space group operators:
 irot       det(A)        alpha          n_x          n_y          n_z        tau_x        tau_y        tau_z
    1     1.000000     0.000001     1.000000     0.000000     0.000000     0.000000     0.000000     0.000000
    2     1.000000   120.000000     0.000000     0.000000    -1.000000     0.000000     0.000000     0.000000
    3     1.000000   120.000000     0.000000    -0.000000     1.000000     0.000000     0.000000     0.000000
    4    -1.000000   180.000000     1.000000     0.000000     0.000000     0.000000     0.000000     0.000000
    5    -1.000000   180.000000     0.500000    -0.866025     0.000000     0.000000     0.000000     0.000000
    6    -1.000000   180.000000    -0.500000    -0.866025     0.000000     0.000000     0.000000     0.000000

 Subroutine IBZKPT returns following result:

 Found     19 irreducible k-points:

 Following reciprocal coordinates:
            Coordinates               Weight
  0.000000  0.000000  0.000000      1.000000
  0.083333 -0.000000  0.000000      6.000000
  0.166667  0.000000  0.000000      6.000000
  0.250000 -0.000000  0.000000      6.000000
  0.333333 -0.000000  0.000000      6.000000
  0.416667  0.000000  0.000000      6.000000
  0.500000 -0.000000  0.000000      3.000000
  0.083333  0.083333  0.000000      6.000000
  0.166667  0.083333  0.000000     12.000000
  0.250000  0.083333  0.000000     12.000000
  0.333333  0.083333  0.000000     12.000000
  0.416667  0.083333  0.000000     12.000000
  0.166667  0.166667  0.000000      6.000000
  0.250000  0.166667  0.000000     12.000000
  0.333333  0.166667  0.000000     12.000000
  0.416667  0.166667  0.000000      6.000000
  0.250000  0.250000  0.000000      6.000000
  0.333333  0.250000  0.000000     12.000000
  0.333333  0.333333  0.000000      2.000000

 Following cartesian coordinates:
            Coordinates               Weight
  0.000000  0.000000  0.000000      1.000000
  0.019876  0.011476  0.000000      6.000000
  0.039753  0.022951  0.000000      6.000000
  0.059629  0.034427  0.000000      6.000000
  0.079505  0.045903  0.000000      6.000000
  0.099382  0.057378  0.000000      6.000000
  0.119258  0.068854  0.000000      3.000000
  0.019876  0.034427  0.000000      6.000000
  0.039753  0.045903  0.000000     12.000000
  0.059629  0.057378  0.000000     12.000000
  0.079505  0.068854  0.000000     12.000000
  0.099382  0.080329  0.000000     12.000000
  0.039753  0.068854  0.000000      6.000000
  0.059629  0.080329  0.000000     12.000000
  0.079505  0.091805  0.000000     12.000000
  0.099382  0.103281  0.000000      6.000000
  0.059629  0.103281  0.000000      6.000000
  0.079505  0.114756  0.000000     12.000000
  0.079505  0.137708  0.000000      2.000000

 SYSTEM =  Tetradymite Slab
 POSCAR =  Bi12 Se18

 Startparameter for this run:
   NWRITE =      2    write-flag & timer
   PREC   = accura    normal or accurate (medium, high low for compatibility)
   ISTART =      0    job   : 0-new  1-cont  2-samecut
   ICHARG =      2    charge: 1-file 2-atom 10-const
   ISPIN  =      1    spin polarized calculation?
   LNONCOLLINEAR =      F non collinear calculations
   LSORBIT =      F    spin-orbit coupling
   INIWAV =      1    electr: 0-lowe 1-rand  2-diag
   LASPH  =      F    aspherical Exc in radial PAW
   METAGGA=      F    non-selfconsistent MetaGGA calc.

 Electronic Relaxation 1
   ENCUT  =  300.0 eV  22.05 Ry    4.70 a.u.   5.92  5.92176.11*2*pi/ulx,y,z
   ENINI  =  300.0     initial cutoff
   ENAUG  =  446.8 eV  augmentation charge cutoff
   NELM   =     80;   NELMIN=  2; NELMDL= -5     # of ELM steps
   EDIFF  = 0.1E-05   stopping-criterion for ELM
   LREAL  =      F    real-space projection
   NLSPLINE    = F    spline interpolate recip. space projectors
   LCOMPAT=      F    compatible to vasp.4.4
   GGA_COMPAT  = T    GGA compatible to vasp.4.4-vasp.4.6
   LMAXPAW     = -100 max onsite density
   LMAXMIX     =    2 max onsite mixed and CHGCAR
   VOSKOWN=      0    Vosko Wilk Nusair interpolation
   ROPT   =    0.00000   0.00000
 Ionic relaxation
   EDIFFG = -.1E-01   stopping-criterion for IOM
   NSW    =     20    number of steps for IOM
   NBLOCK =      1;   KBLOCK =     20    inner block; outer block
   IBRION =      2    ionic relax: 0-MD 1-quasi-New 2-CG
   NFREE  =      1    steps in history (QN), initial steepest desc. (CG)
   ISIF   =      2    stress and relaxation
   IWAVPR =     11    prediction:  0-non 1-charg 2-wave 3-comb
   ISYM   =      2    0-nonsym 1-usesym 2-fastsym
   LCORR  =      T    Harris-Foulkes like correction to forces

   POTIM  = 0.5000    time-step for ionic-motion
   TEIN   =    0.0    initial temperature
   TEBEG  =    0.0;   TEEND  =   0.0 temperature during run
   SMASS  =  -3.00    Nose mass-parameter (am)
   estimated Nose-frequenzy (Omega)   =  0.10E-29 period in steps =****** mass=  -0.402E-27a.u.
   SCALEE = 1.0000    scale energy and forces
   NPACO  =    256;   APACO  = 16.0  distance and # of slots for P.C.
   PSTRESS=    0.0 pullay stress

  Mass of Ions in am
   POMASS = 208.98 78.96
  Ionic Valenz
   ZVAL   =  15.00  6.00
  Atomic Wigner-Seitz radii
  virtual crystal weights
   VCA    =   1.00  1.00
   NELECT =     288.0000    total number of electrons
   NUPDOWN=      -1.0000    fix difference up-down

 DOS related values:
   EMIN   =  10.00;   EMAX   =-10.00  energy-range for DOS
   EFERMI =   0.00
   ISMEAR =     1;   SIGMA  =   0.20  broadening in eV -4-tet -1-fermi 0-gaus

 Electronic relaxation 2 (details)
   IALGO  =     68    algorithm
   LDIAG  =      T    sub-space diagonalisation (order eigenvalues)
   LSUBROT=      F    optimize rotation matrix (better conditioning)
   TURBO    =      0    0=normal 1=particle mesh
   IRESTART =      0    0=no restart 2=restart with 2 vectors
   NREBOOT  =      0    no. of reboots
[...]

[...]

 d Force = 0.1492182E-04[ 0.861E-05, 0.212E-04]  d Energy = 0.1785236E-04-0.293E-05
 d Force = 0.2512896E+01[ 0.251E+01, 0.251E+01]  d Ewald  = 0.2512896E+01 0.105E-07

[...]

 d Force = 0.2722970E-03[ 0.174E-03, 0.371E-03]  d Energy = 0.2734395E-03-0.114E-05
 d Force =-0.5842200E+00[-0.585E+00,-0.584E+00]  d Ewald  =-0.5842205E+00 0.479E-06

 Conjugate gradient step on ions:
 trial-energy change:   -0.000273  1 .order   -0.000272   -0.000371   -0.000174
  (g-gl).g = 0.537E-03      g.g   = 0.472E-03  gl.gl    = 0.148E-02
 g(Force)  = 0.472E-03   g(Stress)= 0.000E+00 ortho     =-0.647E-04
 gamma     =   0.36397
 trial     =   0.82663
 opt step  =   1.55497  (harmonic =   1.55497) maximal distance =0.00525815
 next E    =  -122.966741   (d E  =  -0.00035)

[...]

 d Force = 0.7478698E-04[-0.349E-05, 0.153E-03]  d Energy = 0.7566737E-04-0.880E-06
 d Force =-0.5158231E+00[-0.516E+00,-0.515E+00]  d Ewald  =-0.5158234E+00 0.332E-06

[...]

 Conjugate gradient step on ions:
 trial-energy change:   -0.000121  1 .order   -0.000118   -0.000161   -0.000075
  (g-gl).g = 0.610E-04      g.g   = 0.166E-03  gl.gl    = 0.472E-03
 g(Force)  = 0.166E-03   g(Stress)= 0.000E+00 ortho     =-0.479E-05
 gamma     =   0.12916
 trial     =   0.97229
 opt step  =   1.82977  (harmonic =   1.82977) maximal distance =0.00200598
 next E    =  -122.966892   (d E  =  -0.00015)

[...]

 eigenvalue-minimisations  : 11465
 total energy-change (2. order) :-0.2007703E-03  (-0.6547566E-05)
 number of electron     288.0000125 magnetization
 augmentation part       49.7848063 magnetization

[...]

 Broyden mixing:
  rms(total) = 0.48814E-03    rms(broyden)= 0.48806E-03
  rms(prec ) = 0.56334E-03
  weight for this iteration     100.00

 eigenvalues of (default mixing * dielectric matrix)
  average eigenvalue GAMMA=   0.5692
  1.1466  1.1466  0.3468  0.0618  0.1440

[...]

--------------------------------------- Iteration     10(   7)  ---------------------------------------

 eigenvalue-minimisations  :  7074
 total energy-change (2. order) : 0.7720264E-06  (-0.5866138E-07)
 number of electron     288.0000125 magnetization
 augmentation part       49.7848098 magnetization

 Free energy of the ion-electron system (eV)
  alpha Z        PSCENC =       366.02850164
  Ewald energy   TEWEN  =   1276809.04291418
  -Hartree energ DENC   =  -1302657.51757582
  -exchange      EXHF   =         0.00000000
  -V(xc)+E(xc)   XCENC  =       571.02869088
  PAW double counting   =     19116.98655366   -18489.12526774
  entropy T*S    EENTRO =         0.05253777
  eigenvalues    EBANDS =     -3967.49351402
  atomic energy  EATOM  =     28128.03026041
  Solvation  Ediel_sol  =         0.00000000
  free energy    TOTEN  =      -122.96689904 eV

  energy without entropy =     -123.01943682  energy(sigma->0) =     -122.98441164

 average (electrostatic) potential at core
  the test charge radii are     1.0856  1.0808
  (the norm of the test charge is              1.0000)
       1-112.3690       2-112.3274       3-112.3324       4-112.3697       5-112.3704
       6-112.3704       7-112.3291       8-112.3714       9-112.3678      10-112.3690
      11-112.3694      12-112.3290      13 -58.7906      14 -58.8863      15 -58.8219
      16 -58.7503      17 -58.8480      18 -58.8901      19 -58.7906      20 -58.8879
      21 -58.8877      22 -58.7444      23 -58.8253      24 -58.8890      25 -58.7933
      26 -58.8836      27 -58.8866      28 -58.7900      29 -58.8896      30 -58.8450

 E-fermi :  -1.1978     XC(G=0):  -4.5350     alpha+bet : -4.5167

[...]

 k-point    19 :       0.3333    0.3333    0.0000
  band No.  band energies     occupation
      1     -23.9766      2.00000
      2     -23.9755      2.00000
      3     -23.9754      2.00000
      4     -23.9749      2.00000
      5     -23.9745      2.00000
      6     -23.9742      2.00000
      7     -23.9741      2.00000
      8     -23.9729      2.00000
      9     -23.9717      2.00000
     10     -23.9716      2.00000
     11     -23.9713      2.00000
     12     -23.9708      2.00000
     13     -23.9635      2.00000
     14     -23.9631      2.00000
     15     -23.9627      2.00000
     16     -23.9626      2.00000
     17     -23.9605      2.00000
     18     -23.9596      2.00000
     19     -23.9596      2.00000
     20     -23.9595      2.00000
     21     -23.9591      2.00000
     22     -23.9587      2.00000
     23     -23.9586      2.00000
     24     -23.9586      2.00000
     25     -23.9586      2.00000
     26     -23.9584      2.00000
     27     -23.9581      2.00000
     28     -23.9577      2.00000
     29     -23.9574      2.00000
     30     -23.9568      2.00000
     31     -23.9566      2.00000
     32     -23.9558      2.00000
     33     -23.9538      2.00000
     34     -23.9535      2.00000
     35     -23.9533      2.00000
     36     -23.9531      2.00000
     37     -23.9526      2.00000
     38     -23.9525      2.00000
     39     -23.9523      2.00000
     40     -23.9514      2.00000
     41     -23.9375      2.00000
     42     -23.9344      2.00000
     43     -23.9340      2.00000
     44     -23.9326      2.00000
     45     -23.9323      2.00000
     46     -23.9306      2.00000
     47     -23.9226      2.00000
     48     -23.9225      2.00000
     49     -23.9214      2.00000
     50     -23.9205      2.00000
     51     -23.9185      2.00000
     52     -23.9184      2.00000
     53     -23.9183      2.00000
     54     -23.9177      2.00000
     55     -23.9165      2.00000
     56     -23.9154      2.00000
     57     -23.9142      2.00000
     58     -23.9123      2.00000
     59     -23.9122      2.00000
     60     -23.9108      2.00000
[...]
    242       8.6911      0.00000
    243       8.7087      0.00000
    244       8.8307      0.00000
    245       8.8338      0.00000
    246       8.8435      0.00000
    247       8.8480      0.00000
    248       8.8551      0.00000
    249       8.8553      0.00000
    250       8.9644      0.00000
    251       8.9670      0.00000
    252       8.9768      0.00000
    253       9.0618      0.00000
    254       9.0966      0.00000
    255       9.0987      0.00000
    256       9.2225      0.00000

 soft charge-density along one line, spin component           1
         0         1         2         3         4         5         6         7         8         9
 total charge-density along one line

------------------------ aborting loop because EDIFF is reached ----------------------------------------

[...]

  FORCE on cell =-STRESS in cart. coord.  units (eV):
  Direction    XX          YY          ZZ          XY          YZ          ZX
  Alpha Z   366.02850   366.02850   366.02850
  Ewald  ************************************     0.00013     0.00014    -0.00025
  Hartree************************************    -0.00003     0.00004    -0.00006
  E(xc)   -1272.09563 -1272.09569 -1272.74582    -0.00006    -0.00000     0.00000
  Local  ************************************    -0.00132    -0.00015     0.00027
  n-local  2004.57436  2003.32756  1996.84783     1.74004    -1.45036     7.33764
  augment  1515.41958  1515.42063  1516.32421     0.00090    -0.00000     0.00001
  Kinetic  2919.52683  2964.37627  2956.81018   -57.84316     0.32329     4.19898
  Fock        0.00000     0.00000     0.00000     0.00000     0.00000     0.00000
  Total      -1.41448    -1.41448    -1.19028     0.00000    -0.00000    -0.00000
  in kB      -1.19386    -1.19386    -1.00463     0.00000    -0.00000    -0.00000

 VOLUME and BASIS-vectors are now :
  energy-cutoff  :      300.00
  volume of cell :     1898.26
      direct lattice vectors                 reciprocal lattice vectors
     4.192584025  0.000000000  0.000000000     0.238516388  0.137707517  0.000000000
    -2.096292193  3.630884169  0.000000000     0.000000000  0.275415010  0.000000000
     0.000000000  0.000000000124.698310675    -0.000000000 -0.000000000  0.008019355

  length of vectors
     4.192584025  4.192584025124.698310675     0.275415010  0.275415010  0.008019355

 FORCES acting on ions
    electron-ion (+dipol)            ewald-force                    non-local-force                 convergence-correction
   0.204E-02 -.118E-02 0.103E+04   0.367E-03 -.212E-03 -.104E+04   0.953E-17 -.345E-17 0.581E+01   0.123E-07 -.710E-08 0.313E-01
   0.204E-02 -.118E-02 0.118E+05   0.295E-03 -.171E-03 -.118E+05   0.193E-16 -.215E-16 -.591E+01   0.167E-07 -.966E-08 -.182E-01
   -.876E-05 0.576E-05 0.959E+04   -.590E-04 0.340E-04 -.960E+04   -.166E-16 0.140E-16 0.572E+01   -.302E-07 0.175E-07 0.113E-01
   0.904E-05 -.575E-05 0.753E+04   0.597E-04 -.345E-04 -.752E+04   0.383E-16 -.267E-18 -.581E+01   -.662E-08 0.382E-08 0.438E-01
   -.204E-02 0.118E-02 0.531E+04   -.296E-03 0.171E-03 -.532E+04   -.500E-17 -.705E-17 0.581E+01   0.161E-07 -.930E-08 0.450E-01
   -.204E-02 0.118E-02 0.325E+04   -.367E-03 0.212E-03 -.324E+04   0.225E-16 -.597E-17 -.581E+01   0.364E-07 -.210E-07 0.192E-01
   0.205E-02 -.118E-02 -.118E+05   0.368E-03 -.212E-03 0.118E+05   -.480E-17 0.944E-17 0.594E+01   0.393E-07 -.227E-07 0.156E-01
   0.204E-02 -.118E-02 -.103E+04   0.297E-03 -.171E-03 0.104E+04   0.265E-16 -.212E-16 -.582E+01   -.239E-07 0.138E-07 0.821E-01
   -.891E-05 0.564E-05 -.325E+04   -.592E-04 0.342E-04 0.324E+04   -.188E-16 0.675E-17 0.579E+01   0.582E-08 -.336E-08 0.104E+00
   0.890E-05 -.592E-05 -.531E+04   0.596E-04 -.344E-04 0.532E+04   0.135E-16 0.477E-17 -.581E+01   0.105E-07 -.607E-08 0.131E+00
   -.204E-02 0.118E-02 -.753E+04   -.297E-03 0.171E-03 0.752E+04   -.156E-16 -.150E-16 0.581E+01   -.106E-07 0.610E-08 0.122E+00
   -.204E-02 0.118E-02 -.959E+04   -.367E-03 0.212E-03 0.960E+04   0.140E-16 0.704E-17 -.572E+01   -.234E-07 0.135E-07 0.658E-01
   0.578E-07 -.168E-07 0.856E+03   -.147E-06 0.848E-07 -.856E+03   -.765E-20 -.738E-20 -.199E-02   0.928E-08 -.536E-08 0.860E-02
   -.711E-03 0.410E-03 0.254E+02   -.282E-03 0.163E-03 -.224E+02   0.202E-17 -.599E-17 -.300E+01   0.109E-07 -.629E-08 0.191E-01
   0.470E-04 -.270E-04 0.511E+04   -.124E-03 0.717E-04 -.511E+04   0.336E-16 0.544E-17 0.299E+01   0.117E-08 -.677E-09 -.135E-01
   -.716E-03 0.414E-03 0.428E+04   -.243E-03 0.140E-03 -.428E+04   0.329E-18 -.740E-19 0.158E-01   0.165E-08 -.954E-09 -.233E-02
   0.776E-03 -.448E-03 0.345E+04   0.139E-03 -.801E-04 -.345E+04   -.181E-16 -.163E-16 -.298E+01   -.261E-08 0.151E-08 0.676E-02
   -.776E-03 0.448E-03 0.340E+04   -.139E-03 0.802E-04 -.340E+04   0.143E-17 0.494E-17 0.300E+01   0.152E-07 -.878E-08 0.132E-01
   0.717E-03 -.414E-03 0.257E+04   0.243E-03 -.140E-03 -.257E+04   -.106E-18 0.936E-19 0.179E-02   0.130E-07 -.751E-08 0.178E-01
   -.478E-04 0.275E-04 0.174E+04   0.121E-03 -.700E-04 -.173E+04   0.662E-16 0.828E-17 -.300E+01   -.145E-07 0.837E-08 0.165E-01
   0.711E-03 -.410E-03 0.169E+04   0.282E-03 -.163E-03 -.169E+04   0.179E-16 -.981E-17 0.300E+01   -.156E-07 0.900E-08 0.104E-01
   -.385E-06 0.235E-06 -.428E+04   0.996E-06 -.575E-06 0.428E+04   -.622E-18 0.166E-18 -.104E-01   0.586E-08 -.338E-08 0.162E-01
   -.714E-03 0.412E-03 -.511E+04   -.280E-03 0.161E-03 0.511E+04   -.118E-16 -.105E-16 -.299E+01   -.231E-07 0.133E-07 -.648E-02
   0.479E-04 -.275E-04 -.255E+02   -.121E-03 0.700E-04 0.225E+02   0.379E-16 0.338E-17 0.300E+01   0.119E-07 -.689E-08 0.297E-01
   -.716E-03 0.414E-03 -.856E+03   -.243E-03 0.140E-03 0.856E+03   0.184E-18 -.170E-18 -.375E-02   -.757E-08 0.437E-08 0.375E-01
   0.776E-03 -.448E-03 -.169E+04   0.139E-03 -.801E-04 0.169E+04   0.888E-17 0.118E-16 -.300E+01   -.270E-08 0.156E-08 0.433E-01
   -.776E-03 0.448E-03 -.174E+04   -.139E-03 0.802E-04 0.173E+04   -.127E-17 0.170E-16 0.300E+01   0.918E-08 -.530E-08 0.486E-01
   0.717E-03 -.414E-03 -.257E+04   0.243E-03 -.140E-03 0.257E+04   0.251E-19 0.252E-19 -.377E-03   0.170E-07 -.979E-08 0.529E-01
   -.479E-04 0.275E-04 -.340E+04   0.121E-03 -.701E-04 0.340E+04   -.776E-17 0.137E-16 -.300E+01   -.175E-07 0.101E-07 0.408E-01
   0.711E-03 -.410E-03 -.345E+04   0.282E-03 -.163E-03 0.345E+04   0.523E-18 0.534E-17 0.298E+01   0.714E-09 -.412E-09 0.290E-01
   -.402E-06 0.181E-06 -.104E+01   0.906E-14 -.552E-12 -.728E-11   0.212E-15 -.506E-17 0.185E-01   0.547E-07 -.316E-07 0.102E+01

 POSITION                                       TOTAL-FORCE (eV/Angst)
     -0.00000      2.42059     27.93027        -0.000000      0.000000     -0.001779
     -0.00000      2.42059      3.24661        -0.000000      0.000000     -0.022560
     -0.00000      0.00000      7.14658         0.000000     -0.000000      0.004873
     -0.00000      0.00000     13.63559         0.000000     -0.000000      0.001989
      2.09629      1.21029     17.53946        -0.000000      0.000000     -0.003263
      2.09629      1.21029     24.02699         0.000000     -0.000000      0.001854
     -0.00000      2.42059     59.10753        -0.000000     -0.000000     -0.003007
     -0.00000      2.42059     34.41862        -0.000000      0.000000      0.001522
      0.00000      0.00000     38.31951         0.000000     -0.000000      0.013387
     -0.00000      0.00000     44.81012         0.000000     -0.000000      0.000909
      2.09629      1.21029     48.71378         0.000000     -0.000000     -0.003099
      2.09629      1.21029     55.20336         0.000000     -0.000000     -0.001478
     -0.00000      0.00000     25.97935         0.000000     -0.000000     -0.004040
      2.09629      1.21029     29.49442         0.000000     -0.000000      0.006004
     -0.00000      0.00000      1.68470         0.000000     -0.000000      0.005855
      2.09629      1.21029      5.19958        -0.000000     -0.000000      0.006184
     -0.00000      2.42059      8.71224        -0.000000      0.000000      0.005019
      2.09629      1.21029     12.07163        -0.000000     -0.000000     -0.006322
     -0.00000      2.42059     15.58734        -0.000000      0.000000      0.003108
     -0.00000      0.00000     19.10393         0.000000     -0.000000      0.003956
     -0.00000      2.42059     22.46236         0.000000     -0.000000     -0.002185
     -0.00000      0.00000     57.15077         0.000000     -0.000000      0.001320
      2.09629      1.21029     60.66692         0.000000     -0.000000      0.007539
     -0.00000      0.00000     32.85460         0.000000     -0.000000     -0.005991
      2.09629      1.21029     36.37025         0.000000     -0.000000     -0.005876
     -0.00000      2.42059     39.88530         0.000000     -0.000000     -0.003083
      2.09629      1.21029     43.24549         0.000000     -0.000000     -0.003666
     -0.00000      2.42059     46.76166        -0.000000      0.000000     -0.001230
     -0.00000      0.00000     50.27746         0.000000     -0.000000      0.007670
     -0.00000      2.42059     53.63730         0.000000     -0.000000     -0.003609
    total drift:                               -0.000000      0.000000      0.002725

  FREE ENERGIE OF THE ION-ELECTRON SYSTEM (eV)
  free  energy   TOTEN  =      -122.96689904 eV

  energy  without entropy=     -123.01943682  energy(sigma->0) =     -122.98441164

 d Force = 0.3493267E-04[ 0.333E-05, 0.665E-04]  d Energy = 0.3749772E-04-0.257E-05
 d Force =-0.7929497E+01[-0.793E+01,-0.793E+01]  d Ewald  =-0.7929497E+01 0.594E-07

 reached required accuracy - stopping structural energy minimisation
 writing wavefunctions

 total charge

# of ion       s       p       d       tot
    1        1.619   1.034   9.949  12.603
    2        1.620   1.033   9.949  12.602
    3        1.619   1.034   9.949  12.603
    4        1.619   1.035   9.949  12.603
    5        1.619   1.034   9.949  12.603
    6        1.619   1.034   9.949  12.603
    7        1.620   1.033   9.949  12.602
    8        1.619   1.035   9.949  12.603
    9        1.619   1.034   9.949  12.603
   10        1.619   1.034   9.949  12.603
   11        1.619   1.035   9.949  12.603
   12        1.619   1.034   9.949  12.602
   13        1.467   2.313   0.018   3.799
   14        1.482   2.264   0.018   3.764
   15        1.480   2.268   0.018   3.766
   16        1.467   2.314   0.018   3.800
   17        1.482   2.264   0.018   3.764
   18        1.482   2.263   0.018   3.763
   19        1.467   2.313   0.018   3.799
   20        1.482   2.263   0.018   3.764
   21        1.482   2.263   0.018   3.764
   22        1.467   2.314   0.018   3.799
   23        1.480   2.268   0.018   3.766
   24        1.482   2.263   0.018   3.764
   25        1.467   2.313   0.018   3.799
   26        1.482   2.263   0.018   3.763
   27        1.482   2.263   0.018   3.764
   28        1.467   2.313   0.018   3.799
   29        1.482   2.263   0.018   3.763
   30        1.482   2.264   0.018   3.764
tot         46.018  53.458 119.717 219.193