 vasp.5.4.4.18Apr17-6-g9f103f2a35 (build Aug 29 2022 10:07:22) complex

 executed on           IFC91_ompi date 2022.09.30  23:56:30

 INCAR:
 POTCAR:   PAW_PBE Sb 06Sep2000
 POTCAR:   PAW_PBE Te 08Apr2002

 POTCAR:   PAW_PBE Sb 06Sep2000
   VRHFIN =Sb: s2p3

   TITEL  = PAW_PBE Sb 06Sep2000
   POMASS =  121.750; ZVAL   =    5.000    mass and valenz
   ENMAX  =  172.037; ENMIN  =  129.028 eV
   QCUT   =   -3.556; QGAM   =    7.112    optimization parameters

   Description
     l     E      TYP  RCUT    TYP  RCUT
     0   .000     23  2.300
     0  1.000     23  2.300
     1   .000     23  2.300
     1   .000     23  2.300
     2   .000     23  2.300
     3  -.100     23  2.300

 POTCAR:   PAW_PBE Te 08Apr2002
   VRHFIN =Te: s2p4

   TITEL  = PAW_PBE Te 08Apr2002
   POMASS =  127.600; ZVAL   =    6.000    mass and valenz
   ENMAX  =  174.982; ENMIN  =  131.236 eV
   QCUT   =   -3.586; QGAM   =    7.172    optimization parameters

   Description
     l     E      TYP  RCUT    TYP  RCUT
     0   .000     23  2.300
     0   .000     23  2.300
     1   .000     23  2.300
     1   .000     23  2.300
     2   .000     23  2.300
     3  -.100     23  2.300

 PAW_PBE Sb 06Sep2000                   :
 PAW_PBE Te 08Apr2002                   :

 POSCAR: Sb12 Te18
  positions in direct lattice
 exchange correlation table for  LEXCH =        8
   RHO(1)=    0.500       N(1)  =     2000
   RHO(2)=  100.500       N(2)  =     4000

 ion  position               nearest neighbor table
   1  0.667  0.937  0.042-  14 3.03  14 3.03  15 3.19
   2  0.667  0.730  0.042-  13 3.03  18 3.19  18 3.19
   3  0.000  0.603  0.208-  26 3.03  26 3.03  17 3.03  18 3.19  27 3.19  18 3.19
   4  0.000  0.397  0.208-  16 3.03  25 3.03  16 3.03  30 3.19  30 3.19  21 3.19
   5  0.333  0.270  0.125-  20 3.03  20 3.03  30 3.19  21 3.19  21 3.19
   6  0.333  0.063  0.125-  28 3.03  19 3.03  19 3.03  15 3.19  15 3.19
   7  0.667  0.937  0.292-  14 3.03  23 3.03  23 3.03  15 3.19  15 3.19  24 3.19
   8  0.667  0.730  0.292-  13 3.03  13 3.03  22 3.03  18 3.19  27 3.19  27 3.19
   9  0.000  0.603  0.458-  26 3.03  27 3.19  27 3.19
  10  0.000  0.397  0.458-  25 3.03  25 3.03  30 3.19
  11  0.333  0.270  0.375-  29 3.03  20 3.03  29 3.03  30 3.19  30 3.19
  12  0.333  0.063  0.375-  28 3.03  28 3.03  24 3.19  15 3.19  24 3.19
  13  0.000  0.785  0.208-   8 3.03   8 3.03   2 3.03
  14  0.333  0.882  0.125-   7 3.03   1 3.03   1 3.03
  15  0.000  0.000  0.208-   7 3.19   6 3.19  12 3.19   7 3.19   6 3.19   1 3.19
  16  0.333  0.451  0.125-   4 3.03   4 3.03
  17  0.667  0.549  0.042-   3 3.03
  18  0.333  0.667  0.125-   8 3.19   2 3.19   2 3.19   3 3.19   3 3.19
  19  0.667  0.118  0.042-   6 3.03   6 3.03
  20  0.000  0.215  0.208-   5 3.03  11 3.03   5 3.03
  21  0.667  0.333  0.042-   5 3.19   5 3.19   4 3.19
  22  0.000  0.785  0.458-   8 3.03
  23  0.333  0.882  0.375-   7 3.03   7 3.03
  24  0.000  0.000  0.458-  12 3.19  12 3.19   7 3.19
  25  0.333  0.451  0.375-  10 3.03   4 3.03  10 3.03
  26  0.667  0.549  0.292-   3 3.03   3 3.03   9 3.03
  27  0.333  0.667  0.375-   8 3.19   8 3.19   9 3.19   3 3.19   9 3.19
  28  0.667  0.118  0.292-   6 3.03  12 3.03  12 3.03
  29  0.000  0.215  0.458-  11 3.03  11 3.03
  30  0.667  0.333  0.292-   5 3.19  11 3.19  11 3.19   4 3.19   4 3.19  10 3.19

  LATTYP: Found a simple orthorhombic cell.
 ALAT       =     4.3306459950
 B/A-ratio  =     3.4641016365
 C/A-ratio  =     7.2361724603

  Lattice vectors:

 A1 = (  -3.7504494696,   0.0000000000,   2.1653229573)
 A2 = (  -7.5008989393,   0.0000000000, -12.9919380652)
 A3 = (  -0.0000000000, -31.3373012840,   0.0000000000)

Analysis of symmetry for initial positions (statically):
 Subroutine PRICEL returns:
 Original cell was already a primitive cell.

 Routine SETGRP: Setting up the symmetry group for a
 simple orthorhombic supercell.

 Subroutine GETGRP returns: Found  4 space group operations
 (whereof  1 operations were pure point group operations)
 out of a pool of  8 trial point group operations.

The static configuration has the point symmetry C_1 .
 The point group associated with its full space group is C_2h.

Analysis of symmetry for dynamics (positions and initial velocities):
 Subroutine PRICEL returns:
 Original cell was already a primitive cell.

[...]

The dynamic configuration has the point symmetry C_1 .
 The point group associated with its full space group is C_2h.

Analysis of constrained symmetry for selective dynamics:
 Subroutine PRICEL returns:
 Original cell was already a primitive cell.

 Routine SETGRP: Setting up the symmetry group for a
 simple orthorhombic supercell.

 Subroutine GETGRP returns: Found  2 space group operations
 (whereof  1 operations were pure point group operations)
 out of a pool of  8 trial point group operations.

The constrained configuration has the point symmetry C_1 .
 The point group associated with its full space group is C_1h.

 Subroutine INISYM returns: Found  2 space group operations
 (whereof  1 operations are pure point group operations),
 and found     1 'primitive' translations

 KPOINTS: k-point density of [50, 50, 50]/[a, b, c

Automatic generation of k-mesh.
Space group operators:
 irot       det(A)        alpha          n_x          n_y          n_z        tau_x        tau_y        tau_z
    1     1.000000     0.000000     1.000000     0.000000     0.000000     0.000000     0.000000     0.000000
    2    -1.000000   180.000000     0.866025    -0.000000    -0.500000    -0.833335     0.000000    -0.000000

 Subroutine IBZKPT returns following result:

 Found     28 irreducible k-points:

 Following reciprocal coordinates:
            Coordinates               Weight
  0.000000  0.000000  0.000000      1.000000
  0.083333  0.000000  0.000000      4.000000
  0.166667  0.000000  0.000000      4.000000
  0.250000  0.000000  0.000000      2.000000
  0.333333  0.000000  0.000000      4.000000
  0.416667  0.000000  0.000000      4.000000
  0.500000  0.000000  0.000000      1.000000
  0.000000  0.500000  0.000000      1.000000
  0.083333  0.500000  0.000000      4.000000
  0.166667  0.500000  0.000000      4.000000
  0.250000  0.500000  0.000000      2.000000
  0.333333  0.500000  0.000000      4.000000
  0.416667  0.500000  0.000000      4.000000
  0.500000  0.500000  0.000000      1.000000
  0.000000 -0.000000  0.333333      2.000000
  0.083333  0.000000  0.333333      2.000000
  0.250000  0.000000  0.333333      4.000000
  0.333333  0.000000  0.333333      2.000000
  0.500000  0.000000  0.333333      2.000000
 -0.416667 -0.000000  0.333333      2.000000
 -0.166667 -0.000000  0.333333      2.000000
  0.000000  0.500000  0.333333      2.000000
  0.083333  0.500000  0.333333      2.000000
  0.250000  0.500000  0.333333      4.000000
  0.333333  0.500000  0.333333      2.000000
  0.500000  0.500000  0.333333      2.000000
 -0.416667  0.500000  0.333333      2.000000
 -0.166667  0.500000  0.333333      2.000000

 Following cartesian coordinates:
            Coordinates               Weight
  0.000000  0.000000  0.000000      1.000000
  0.022220 -0.000000  0.000000      4.000000
  0.044439 -0.000000  0.000000      4.000000
  0.066659 -0.000000  0.000000      2.000000
  0.088878 -0.000000  0.000000      4.000000
  0.111098 -0.000000  0.000000      4.000000
  0.133317 -0.000000  0.000000      1.000000
  0.000000  0.015955  0.000000      1.000000
  0.022220  0.015955  0.000000      4.000000
  0.044439  0.015955  0.000000      4.000000
  0.066659  0.015955  0.000000      2.000000
  0.088878  0.015955  0.000000      4.000000
  0.111098  0.015955  0.000000      4.000000
  0.133317  0.015955  0.000000      1.000000
  0.011110 -0.000000  0.019243      2.000000
  0.033329 -0.000000  0.019243      2.000000
  0.077768 -0.000000  0.019243      4.000000
  0.099988 -0.000000  0.019243      2.000000
  0.144427 -0.000000  0.019243      2.000000
 -0.099988  0.000000  0.019243      2.000000
 -0.033329  0.000000  0.019243      2.000000
  0.011110  0.015955  0.019243      2.000000
  0.033329  0.015955  0.019243      2.000000
  0.077768  0.015955  0.019243      4.000000
  0.099988  0.015955  0.019243      2.000000
  0.144427  0.015955  0.019243      2.000000
 -0.099988  0.015955  0.019243      2.000000
 -0.033329  0.015955  0.019243      2.000000

 SYSTEM =  Tetradymite Slab
 POSCAR =  Sb12 Te18

 Startparameter for this run:
   NWRITE =      2    write-flag & timer
   PREC   = accura    normal or accurate (medium, high low for compatibility)
   ISTART =      0    job   : 0-new  1-cont  2-samecut
   ICHARG =      2    charge: 1-file 2-atom 10-const
   ISPIN  =      1    spin polarized calculation?
   LNONCOLLINEAR =      F non collinear calculations
   LSORBIT =      F    spin-orbit coupling
   INIWAV =      1    electr: 0-lowe 1-rand  2-diag
   LASPH  =      F    aspherical Exc in radial PAW
   METAGGA=      F    non-selfconsistent MetaGGA calc.

 Electronic Relaxation 1
   ENCUT  =  300.0 eV  22.05 Ry    4.70 a.u.   6.12 44.26 24.46*2*pi/ulx,y,z
   ENINI  =  300.0     initial cutoff
   ENAUG  =  380.5 eV  augmentation charge cutoff
   NELM   =     80;   NELMIN=  2; NELMDL= -5     # of ELM steps
   EDIFF  = 0.1E-05   stopping-criterion for ELM
   LREAL  =      F    real-space projection
   NLSPLINE    = F    spline interpolate recip. space projectors
   LCOMPAT=      F    compatible to vasp.4.4
   GGA_COMPAT  = T    GGA compatible to vasp.4.4-vasp.4.6
   LMAXPAW     = -100 max onsite density
   LMAXMIX     =    2 max onsite mixed and CHGCAR
   VOSKOWN=      0    Vosko Wilk Nusair interpolation
   ROPT   =    0.00000   0.00000
 Ionic relaxation
   EDIFFG = -.1E-01   stopping-criterion for IOM
   NSW    =     20    number of steps for IOM
   NBLOCK =      1;   KBLOCK =     20    inner block; outer block
   IBRION =      2    ionic relax: 0-MD 1-quasi-New 2-CG
   NFREE  =      1    steps in history (QN), initial steepest desc. (CG)
   ISIF   =      2    stress and relaxation
   IWAVPR =     11    prediction:  0-non 1-charg 2-wave 3-comb
   ISYM   =      2    0-nonsym 1-usesym 2-fastsym
   LCORR  =      T    Harris-Foulkes like correction to forces

   POTIM  = 0.5000    time-step for ionic-motion
   TEIN   =    0.0    initial temperature
   TEBEG  =    0.0;   TEEND  =   0.0 temperature during run
   SMASS  =  -3.00    Nose mass-parameter (am)
   estimated Nose-frequenzy (Omega)   =  0.10E-29 period in steps =****** mass=  -0.429E-27a.u.
   SCALEE = 1.0000    scale energy and forces
   NPACO  =    256;   APACO  = 16.0  distance and # of slots for P.C.
   PSTRESS=    0.0 pullay stress

  Mass of Ions in am
   POMASS = 121.75127.60
  Ionic Valenz
   ZVAL   =   5.00  6.00
  Atomic Wigner-Seitz radii
  virtual crystal weights
   VCA    =   1.00  1.00
   NELECT =     168.0000    total number of electrons
   NUPDOWN=      -1.0000    fix difference up-down

 DOS related values:
   EMIN   =  10.00;   EMAX   =-10.00  energy-range for DOS
   EFERMI =   0.00
   ISMEAR =     1;   SIGMA  =   0.20  broadening in eV -4-tet -1-fermi 0-gaus

 Electronic relaxation 2 (details)
   IALGO  =     68    algorithm
   LDIAG  =      T    sub-space diagonalisation (order eigenvalues)
[...]
 opt step  =   4.00801  (harmonic =   4.09256) maximal distance =0.08385946
 next E    =  -103.760301   (d E  =  -0.08840)

[...]

 d Force = 0.4043261E-01[ 0.633E-02, 0.745E-01]  d Energy = 0.3954996E-01 0.883E-03
 d Force = 0.3015572E+02[ 0.298E+02, 0.305E+02]  d Ewald  = 0.3015560E+02 0.122E-03

[...]

 d Force = 0.2580928E-01[-0.275E-03, 0.519E-01]  d Energy = 0.2585970E-01-0.504E-04
 d Force = 0.1408635E+02[ 0.137E+02, 0.144E+02]  d Ewald  = 0.1408716E+02-0.818E-03

[...]

 Conjugate gradient step on ions:
 trial-energy change:   -0.013128  1 .order   -0.013132   -0.017770   -0.008494
  (g-gl).g = 0.656E-02      g.g   = 0.685E-02  gl.gl    = 0.200E-01
 g(Force)  = 0.685E-02   g(Stress)= 0.000E+00 ortho     = 0.246E-04
 gamma     =   0.32767
 trial     =   2.59019
 opt step  =   4.96173  (harmonic =   4.96173) maximal distance =0.02620529
 next E    =  -103.842966   (d E  =  -0.01702)

[...]

 d Force = 0.1368960E-02[-0.369E-04, 0.277E-02]  d Energy = 0.1362949E-02 0.601E-05
 d Force =-0.2575580E+01[-0.259E+01,-0.256E+01]  d Ewald  =-0.2575583E+01 0.281E-05

[...]

 eigenvalue-minimisations  :  5005
 total energy-change (2. order) : 0.3758539E-05  (-0.1979492E-06)
 number of electron     167.9999991 magnetization
 augmentation part      -31.1219168 magnetization

 Broyden mixing:
  rms(total) = 0.32713E-03    rms(broyden)= 0.32713E-03
  rms(prec ) = 0.37830E-03
  weight for this iteration     100.00

 eigenvalues of (default mixing * dielectric matrix)
  average eigenvalue GAMMA=   1.1019
  2.6263  1.5011  1.1206  0.7531  0.2573  0.3531

[...]

--------------------------------------- Iteration     20(   8)  ---------------------------------------

 eigenvalue-minimisations  :  4462
 total energy-change (2. order) :-0.5685188E-06  (-0.1103107E-06)
 number of electron     167.9999991 magnetization
 augmentation part      -31.1219168 magnetization

 Free energy of the ion-electron system (eV)
  alpha Z        PSCENC =        -5.40434045
  Ewald energy   TEWEN  =       373.70459726
  -Hartree energ DENC   =     -5801.90779540
  -exchange      EXHF   =         0.00000000
  -V(xc)+E(xc)   XCENC  =     -1062.02284160
  PAW double counting   =      2978.99849342    -1639.16246587
  entropy T*S    EENTRO =         0.00402399
  eigenvalues    EBANDS =      -764.54507364
  atomic energy  EATOM  =      5816.47334678
  Solvation  Ediel_sol  =         0.00000000
  free energy    TOTEN  =      -103.86205551 eV

  energy without entropy =     -103.86607949  energy(sigma->0) =     -103.86339684

 average (electrostatic) potential at core
  the test charge radii are     1.1712  1.1897
  (the norm of the test charge is              1.0000)
       1 -92.9031       2 -92.9970       3 -92.8437       4 -92.7382       5 -92.6410
       6 -92.6867       7 -92.7238       8 -92.8193       9 -93.0379      10 -92.9170
      11 -92.7176      12 -92.6465      13 -94.3264      14 -94.4135      15 -93.8585
      16 -93.5182      17 -93.4665      18 -94.2303      19 -93.3535      20 -93.6205
      21 -93.6128      22 -93.4679      23 -93.5523      24 -93.5873      25 -94.4569
      26 -94.3342      27 -94.1921      28 -93.6610      29 -93.4456      30 -93.7744

 E-fermi :   0.4412     XC(G=0):  -5.4218     alpha+bet : -5.2823

[...]

 k-point    28 :      -0.1667    0.5000    0.3333
  band No.  band energies     occupation
      1     -11.8943      2.00000
      2     -11.8325      2.00000
      3     -11.7516      2.00000
      4     -11.6155      2.00000
      5     -11.3228      2.00000
      6     -11.2763      2.00000
      7     -11.1956      2.00000
      8     -10.9861      2.00000
      9     -10.8816      2.00000
     10     -10.7689      2.00000
     11     -10.4906      2.00000
     12     -10.4408      2.00000
     13     -10.2591      2.00000
     14     -10.2401      2.00000
     15     -10.1978      2.00000
     16     -10.1347      2.00000
     17      -9.9619      2.00000
     18      -9.9043      2.00000
     19      -8.2944      2.00000
     20      -8.0559      2.00000
     21      -8.0466      2.00000
     22      -8.0127      2.00000
     23      -7.9793      2.00000
     24      -7.9411      2.00000
     25      -7.6409      2.00000
     26      -7.4911      2.00000
     27      -7.4661      2.00000
     28      -7.2211      2.00000
     29      -6.8385      2.00000
     30      -6.7516      2.00000
     31      -3.7587      2.00000
     32      -3.7234      2.00000
     33      -3.4936      2.00000
     34      -3.4483      2.00000
     35      -3.4419      2.00000
     36      -3.4107      2.00000
     37      -3.2362      2.00000
     38      -3.1295      2.00000
     39      -3.1139      2.00000
     40      -2.9062      2.00000
     41      -2.8230      2.00000
     42      -2.7770      2.00000
     43      -2.7354      2.00000
     44      -2.6978      2.00000
     45      -2.6282      2.00000
     46      -2.5446      2.00000
     47      -2.4844      2.00000
     48      -2.4457      2.00000
     49      -2.1779      2.00000
     50      -2.1350      2.00000
     51      -2.0814      2.00000
     52      -1.9993      2.00000
     53      -1.9435      2.00000
     54      -1.8934      2.00000
     55      -1.8490      2.00000
     56      -1.7625      2.00000
     57      -1.7129      2.00000
     58      -1.6326      2.00000
     59      -1.5665      2.00000
     60      -1.5308      2.00000
[...]
    114       3.3174     -0.00000
    115       3.3954     -0.00000
    116       3.4728     -0.00000
    117       3.7651     -0.00000
    118       3.8186     -0.00000
    119       3.9326     -0.00000
    120       4.0483     -0.00000
    121       4.4918     -0.00000
    122       4.6681     -0.00000
    123       4.8559     -0.00000
    124       4.8753     -0.00000
    125       4.9440     -0.00000
    126       5.0697     -0.00000
    127       5.1724     -0.00000
    128       5.2371     -0.00000

 soft charge-density along one line, spin component           1
         0         1         2         3         4         5         6         7         8         9
 total charge-density along one line

------------------------ aborting loop because EDIFF is reached ----------------------------------------

[...]

  FORCE on cell =-STRESS in cart. coord.  units (eV):
  Direction    XX          YY          ZZ          XY          YZ          ZX
  Alpha Z    -5.40434    -5.40434    -5.40434
  Ewald    1270.54348  3768.41088 -4665.26678   -38.89198   -67.36173 -5140.56236
  Hartree  2908.79659  5224.35870 -2331.27893   -30.22159   -52.34543 -4538.03828
  E(xc)    -657.27424  -656.96658  -659.42293    -0.55230    -0.95662    -1.86087
  Local   -7117.98710-11926.83758  4038.01771    70.20595   121.59977  9661.38213
  n-local  2974.61704  2970.81133  2986.51720     3.07569     5.32902    10.30732
  augment  -684.27270  -682.26930  -688.96703    -0.10351    -0.17999    -4.06347
  Kinetic  1303.01229  1299.38900  1322.16516    -4.14895    -7.18712    16.58817
  Fock        0.00000     0.00000     0.00000     0.00000     0.00000     0.00000
  Total      -7.97054    -8.50789    -3.63838    -0.63640    -1.10227     3.75175
  in kB      -6.27250    -6.69538    -2.86327    -0.50082    -0.86745     2.95248

 VOLUME and BASIS-vectors are now :
  energy-cutoff  :      300.00
  volume of cell :     2035.91
      direct lattice vectors                 reciprocal lattice vectors
     3.750449470  0.000000000 -2.165322957     0.266634708 -0.000000000  0.000000000
     0.000000000 31.337301284  0.000000000     0.000000000  0.031910853  0.000000000
     0.000000000  0.000000000 17.322583980     0.033329338 -0.000000000  0.057728108

  length of vectors
     4.330645995 31.337301284 17.322583980     0.266634708  0.031910853  0.066658677

 FORCES acting on ions
    electron-ion (+dipol)            ewald-force                    non-local-force                 convergence-correction
   0.101E+03 0.523E+00 0.174E+03   -.104E+03 0.384E+01 -.180E+03   0.369E+01 -.443E+01 0.639E+01   0.101E-02 -.320E-03 0.175E-02
   0.865E+02 -.261E+02 0.150E+03   -.909E+02 0.305E+02 -.157E+03   0.434E+01 -.432E+01 0.751E+01   -.113E-03 -.101E-02 -.195E-03
   0.166E+02 -.237E+02 0.287E+02   -.157E+02 0.307E+02 -.272E+02   -.853E+00 -.699E+01 -.148E+01   -.378E-03 -.950E-03 -.655E-03
   0.349E+02 -.584E+01 0.605E+02   -.334E+02 0.437E+01 -.578E+02   -.153E+01 0.145E+01 -.266E+01   0.144E-03 0.121E-02 0.250E-03
   0.675E+02 0.425E+02 0.117E+03   -.686E+02 -.450E+02 -.119E+03   0.102E+01 0.249E+01 0.176E+01   -.604E-04 -.397E-03 -.105E-03
   0.636E+02 -.895E+01 0.110E+03   -.632E+02 0.246E+01 -.109E+03   -.285E+00 0.697E+01 -.494E+00   0.457E-03 0.713E-03 0.791E-03
   -.353E+02 0.856E+01 -.612E+02   0.338E+02 -.755E+01 0.586E+02   0.152E+01 -.969E+00 0.263E+01   -.327E-03 0.925E-03 -.567E-03
   -.202E+02 0.283E+02 -.350E+02   0.196E+02 -.354E+02 0.339E+02   0.648E+00 0.722E+01 0.112E+01   -.486E-03 -.800E-03 -.841E-03
   -.887E+02 0.277E+02 -.154E+03   0.931E+02 -.324E+02 0.161E+03   -.436E+01 0.474E+01 -.755E+01   -.303E-03 -.533E-03 -.525E-03
   -.100E+03 0.865E+01 -.174E+03   0.104E+03 -.130E+02 0.180E+03   -.364E+01 0.439E+01 -.631E+01   -.374E-03 -.123E-03 -.647E-03
   -.666E+02 -.690E+01 -.115E+03   0.673E+02 0.153E+02 0.117E+03   -.731E+00 -.847E+01 -.127E+01   0.627E-03 -.338E-03 0.109E-02
   -.655E+02 -.436E+02 -.113E+03   0.663E+02 0.453E+02 0.115E+03   -.827E+00 -.171E+01 -.143E+01   -.422E-03 0.710E-03 -.730E-03
   0.401E+02 -.148E+02 0.694E+02   -.401E+02 0.200E+02 -.695E+02   0.762E-01 -.532E+01 0.132E+00   -.379E-03 -.304E-03 -.656E-03
   0.815E+02 0.503E+02 0.141E+03   -.803E+02 -.556E+02 -.139E+03   -.118E+01 0.534E+01 -.205E+01   0.287E-03 0.449E-03 0.498E-03
   0.291E+02 -.119E+02 0.504E+02   -.291E+02 0.121E+02 -.504E+02   0.233E-01 -.222E+00 0.403E-01   0.500E-05 0.572E-03 0.860E-05
   0.768E+02 -.123E+02 0.133E+03   -.777E+02 0.161E+02 -.135E+03   0.940E+00 -.378E+01 0.163E+01   0.321E-03 0.990E-03 0.556E-03
   0.112E+03 0.638E+01 0.194E+03   -.114E+03 -.788E+01 -.198E+03   0.235E+01 0.154E+01 0.407E+01   0.421E-03 -.109E-03 0.729E-03
   0.806E+02 0.734E+01 0.140E+03   -.811E+02 -.130E+02 -.141E+03   0.545E+00 0.559E+01 0.945E+00   -.383E-03 -.976E-03 -.663E-03
   0.110E+03 -.469E+02 0.191E+03   -.112E+03 0.509E+02 -.195E+03   0.205E+01 -.406E+01 0.355E+01   0.110E-03 0.138E-02 0.190E-03
   0.401E+02 0.500E+02 0.694E+02   -.412E+02 -.550E+02 -.714E+02   0.115E+01 0.499E+01 0.200E+01   0.248E-03 -.964E-03 0.430E-03
   0.122E+03 0.675E+01 0.212E+03   -.125E+03 -.621E+01 -.216E+03   0.243E+01 -.359E+00 0.421E+01   -.145E-03 0.375E-03 -.252E-03
   -.113E+03 -.284E+01 -.196E+03   0.115E+03 0.447E+01 0.200E+03   -.232E+01 -.161E+01 -.402E+01   0.113E-03 -.568E-04 0.195E-03
   -.759E+02 0.111E+02 -.131E+03   0.769E+02 -.145E+02 0.133E+03   -.944E+00 0.347E+01 -.163E+01   -.236E-03 0.870E-03 -.409E-03
   -.121E+03 -.101E+02 -.210E+03   0.124E+03 0.986E+01 0.214E+03   -.248E+01 0.244E+00 -.429E+01   -.912E-03 0.681E-03 -.158E-02
   -.801E+02 -.381E+02 -.139E+03   0.789E+02 0.433E+02 0.137E+03   0.121E+01 -.527E+01 0.210E+01   -.681E-03 0.327E-03 -.118E-02
   -.409E+02 0.226E+02 -.709E+02   0.408E+02 -.279E+02 0.706E+02   0.108E+00 0.533E+01 0.187E+00   -.353E-03 -.993E-03 -.612E-03
   -.824E+02 -.146E+02 -.143E+03   0.827E+02 0.205E+02 0.143E+03   -.327E+00 -.576E+01 -.566E+00   -.202E-03 -.109E-02 -.349E-03
   -.267E+02 -.474E+02 -.463E+02   0.270E+02 0.520E+02 0.468E+02   -.410E+00 -.508E+01 -.709E+00   -.199E-04 0.252E-04 -.345E-04
   -.110E+03 0.283E+02 -.190E+03   0.112E+03 -.325E+02 0.193E+03   -.200E+01 0.414E+01 -.347E+01   0.403E-03 0.177E-03 0.698E-03
   -.355E+02 0.146E+02 -.616E+02   0.360E+02 -.156E+02 0.624E+02   -.462E+00 0.103E+01 -.801E+00   0.390E-03 0.506E-03 0.675E-03
   0.241E+00 -.585E+00 0.452E+00   0.213E-13 -.711E-14 0.163E-12   -.255E+00 0.584E+00 -.442E+00   -.123E-02 0.949E-03 -.214E-02

 POSITION                                       TOTAL-FORCE (eV/Angst)
      2.66502     29.31852     -0.43647         0.029404     -0.062445      0.050929
      2.64688     22.70886     -0.46789        -0.010123      0.031406     -0.017533
     -0.04433     18.59129      3.53210        -0.018935     -0.027197     -0.032796
     -0.20691     12.53018      3.25049         0.002785     -0.022404      0.004824
      1.27663      8.76603      1.48941        -0.019652      0.048698     -0.034038
      1.25015      1.98657      1.44355         0.170962      0.486268      0.296116
      2.74072     29.17908      4.02528        -0.001790      0.040567     -0.003101
      2.69002     23.18785      3.93747        -0.036165      0.016253     -0.062639
      0.00000     18.90497      7.93952         0.064474      0.051380      0.111673
     -0.16145     12.41866      7.65987        -0.014628      0.035493     -0.025336
      1.26573      8.06180      5.80118         0.010803     -0.040547      0.018711
      1.21267      1.74346      5.70928        -0.006451     -0.008503     -0.011173
      0.00000     24.58798      3.60887        -0.015971     -0.160217     -0.027663
      1.27591     27.68582      1.48818         0.006176     -0.013359      0.010697
      0.06096     -0.22110      3.71445         0.001947      0.004074      0.003372
      1.27387     14.39636      1.48463        -0.000189     -0.010325     -0.000327
      2.62472     17.03085     -0.50628         0.033014      0.043851      0.057181
      0.99221     20.82480      0.99678         0.025934     -0.036511      0.044920
      2.42579      3.29747     -0.85083        -0.020441     -0.036318     -0.035405
     -0.01664      6.83644      3.58006         0.005274     -0.003262      0.009134
      2.50030     10.44576     -0.72178         0.012141      0.180226      0.021029
     -0.01018     24.80536      7.92188         0.021613      0.019449      0.037436
      1.28403     27.33655      5.83289         0.009385     -0.019630      0.016256
      0.00000      0.00000      7.93952        -0.038082     -0.028595     -0.065961
      1.22665     14.04566      5.73350        -0.001892     -0.013849     -0.003278
      2.61842     17.15641      3.81347        -0.029808      0.006053     -0.051629
      1.65969     20.77685      6.48355        -0.040936      0.077370     -0.070903
      2.50030      3.69643      3.60887        -0.117999     -0.524716     -0.204380
      0.00227      6.55519      7.94344        -0.025564     -0.024834     -0.044278
      2.48598     10.53019      3.58407         0.004712     -0.008377      0.008161
    total drift:                               -0.015599     -0.000475      0.007791

  FREE ENERGIE OF THE ION-ELECTRON SYSTEM (eV)
  free  energy   TOTEN  =      -103.86205551 eV

  energy  without entropy=     -103.86607949  energy(sigma->0) =     -103.86339684

 d Force = 0.8687698E-02[ 0.607E-02, 0.113E-01]  d Energy = 0.8698574E-02-0.109E-04
 d Force =-0.9110698E+01[-0.916E+01,-0.906E+01]  d Ewald  =-0.9110653E+01-0.453E-04

 Conjugate gradient step on ions:
 trial-energy change:   -0.008699  1 .order   -0.008688   -0.011305   -0.006071
  (g-gl).g = 0.678E-02      g.g   = 0.684E-02  gl.gl    = 0.700E-02
 g(Force)  = 0.684E-02   g(Stress)= 0.000E+00 ortho     =-0.332E-04
 gamma     =   0.96853
 trial     =   1.66098
 opt step  =   3.58739  (harmonic =   3.58739) maximal distance =0.02814399
 next E    =  -103.865565   (d E  =  -0.01221)

 writing wavefunctions

 total charge

# of ion       s       p       d       tot
    1        1.232   1.079   0.028   2.340
    2        1.236   1.067   0.029   2.331
    3        1.248   1.041   0.040   2.330
    4        1.254   0.989   0.044   2.287
    5        1.276   0.974   0.044   2.295
    6        1.261   0.996   0.040   2.297
    7        1.255   0.990   0.044   2.290
    8        1.246   1.047   0.039   2.331
    9        1.235   1.070   0.031   2.336
   10        1.231   1.081   0.029   2.341
   11        1.259   1.009   0.041   2.309
   12        1.273   0.968   0.041   2.281
   13        1.416   1.869   0.030   3.315
   14        1.409   1.877   0.029   3.316
   15        1.396   1.907   0.037   3.340
   16        1.414   1.865   0.024   3.303
   17        1.402   1.907   0.021   3.329
   18        1.408   1.883   0.026   3.316
   19        1.393   1.932   0.018   3.342
   20        1.403   1.906   0.024   3.333
   21        1.396   1.922   0.021   3.339
   22        1.401   1.912   0.022   3.335
   23        1.415   1.863   0.025   3.303
   24        1.397   1.911   0.020   3.328
   25        1.411   1.875   0.030   3.316
   26        1.414   1.883   0.030   3.327
   27        1.405   1.893   0.024   3.322
   28        1.413   1.855   0.021   3.290
   29        1.394   1.926   0.018   3.338
   30        1.393   1.912   0.033   3.338
tot         40.285  46.411   0.901  87.597