 vasp.5.4.4.18Apr17-6-g9f103f2a35 (build Aug 29 2022 10:07:22) complex

 executed on           IFC91_ompi date 2022.09.30  23:56:30

 INCAR:
 POTCAR:   PAW_PBE Sb 06Sep2000
 POTCAR:   PAW_PBE Te 08Apr2002

 POTCAR:   PAW_PBE Sb 06Sep2000
   VRHFIN =Sb: s2p3

   TITEL  = PAW_PBE Sb 06Sep2000
   POMASS =  121.750; ZVAL   =    5.000    mass and valenz
   ENMAX  =  172.037; ENMIN  =  129.028 eV
   QCUT   =   -3.556; QGAM   =    7.112    optimization parameters

   Description
     l     E      TYP  RCUT    TYP  RCUT
     0   .000     23  2.300
     0  1.000     23  2.300
     1   .000     23  2.300
     1   .000     23  2.300
     2   .000     23  2.300
     3  -.100     23  2.300

 POTCAR:   PAW_PBE Te 08Apr2002
   VRHFIN =Te: s2p4

   TITEL  = PAW_PBE Te 08Apr2002
   POMASS =  127.600; ZVAL   =    6.000    mass and valenz
   ENMAX  =  174.982; ENMIN  =  131.236 eV
   QCUT   =   -3.586; QGAM   =    7.172    optimization parameters

   Description
     l     E      TYP  RCUT    TYP  RCUT
     0   .000     23  2.300
     0   .000     23  2.300
     1   .000     23  2.300
     1   .000     23  2.300
     2   .000     23  2.300
     3  -.100     23  2.300

 PAW_PBE Sb 06Sep2000                   :
 PAW_PBE Te 08Apr2002                   :

 POSCAR: Sb12 Te18
  positions in direct lattice
 exchange correlation table for  LEXCH =        8
   RHO(1)=    0.500       N(1)  =     2000
   RHO(2)=  100.500       N(2)  =     4000

 ion  position               nearest neighbor table
   1  0.333  0.667  0.224-  14 3.03  14 3.03  14 3.03  15 3.19  15 3.19  15 3.19
   2  0.333  0.667  0.026-  13 3.03  13 3.03  13 3.03  18 3.19  18 3.19  18 3.19
   3  0.000  0.000  0.058-  17 3.03  17 3.03  17 3.03  18 3.19  18 3.19  18 3.19
   4  0.000  0.000  0.109-  16 3.03  16 3.03  16 3.03  21 3.19  21 3.19  21 3.19
   5  0.667  0.333  0.141-  20 3.03  20 3.03  20 3.03  21 3.19  21 3.19  21 3.19
   6  0.667  0.333  0.192-  19 3.03  19 3.03  19 3.03  15 3.19  15 3.19  15 3.19
   7  0.333  0.667  0.474-  23 3.03  23 3.03  23 3.03  24 3.19  24 3.19  24 3.19
   8  0.333  0.667  0.276-  22 3.03  22 3.03  22 3.03  27 3.19  27 3.19  27 3.19
   9  0.000  0.000  0.308-  26 3.03  26 3.03  26 3.03  27 3.19  27 3.19  27 3.19
  10  0.000  0.000  0.359-  25 3.03  25 3.03  25 3.03  30 3.19  30 3.19  30 3.19
  11  0.667  0.333  0.391-  29 3.03  29 3.03  29 3.03  30 3.19  30 3.19  30 3.19
  12  0.667  0.333  0.442-  28 3.03  28 3.03  28 3.03  24 3.19  24 3.19  24 3.19
  13  0.000  0.000  0.012-   2 3.03   2 3.03   2 3.03
  14  0.667  0.333  0.238-   1 3.03   1 3.03   1 3.03
  15  0.000  0.000  0.208-   1 3.19   6 3.19   1 3.19   1 3.19   6 3.19   6 3.19
  16  0.667  0.333  0.096-   4 3.03   4 3.03   4 3.03
  17  0.333  0.667  0.071-   3 3.03   3 3.03   3 3.03
  18  0.667  0.333  0.042-   2 3.19   2 3.19   2 3.19   3 3.19   3 3.19   3 3.19
  19  0.333  0.667  0.179-   6 3.03   6 3.03   6 3.03
  20  0.000  0.000  0.154-   5 3.03   5 3.03   5 3.03
  21  0.333  0.667  0.125-   5 3.19   5 3.19   5 3.19   4 3.19   4 3.19   4 3.19
  22  0.000  0.000  0.262-   8 3.03   8 3.03   8 3.03
  23  0.667  0.333  0.488-   7 3.03   7 3.03   7 3.03
  24  0.000  0.000  0.458-   7 3.19  12 3.19   7 3.19   7 3.19  12 3.19  12 3.19
  25  0.667  0.333  0.346-  10 3.03  10 3.03  10 3.03
  26  0.333  0.667  0.321-   9 3.03   9 3.03   9 3.03
  27  0.667  0.333  0.292-   8 3.19   8 3.19   8 3.19   9 3.19   9 3.19   9 3.19
  28  0.333  0.667  0.429-  12 3.03  12 3.03  12 3.03
  29  0.000  0.000  0.404-  11 3.03  11 3.03  11 3.03
  30  0.333  0.667  0.375-  11 3.19  11 3.19  11 3.19  10 3.19  10 3.19  10 3.19

  LATTYP: Found a hexagonal cell.
 ALAT       =     4.3306460351
 C/A-ratio  =    28.9446895727

  Lattice vectors:

 A1 = (   4.3306459950,   0.0000000000,   0.0000000000)
 A2 = (  -2.1653229573,   3.7504494696,   0.0000000000)
 A3 = (   0.0000000000,   0.0000000000, 125.3492051359)

Analysis of symmetry for initial positions (statically):
 Subroutine PRICEL returns:
 Original cell was already a primitive cell.

 Routine SETGRP: Setting up the symmetry group for a
 hexagonal supercell.

 Subroutine GETGRP returns: Found 12 space group operations
 (whereof  6 operations were pure point group operations)
 out of a pool of 24 trial point group operations.

The static configuration has the point symmetry C_3v.
 The point group associated with its full space group is D_3d.

Analysis of symmetry for dynamics (positions and initial velocities):
 Subroutine PRICEL returns:
 Original cell was already a primitive cell.

[...]

The dynamic configuration has the point symmetry C_3v.
 The point group associated with its full space group is D_3d.

Analysis of constrained symmetry for selective dynamics:
 Subroutine PRICEL returns:
 Original cell was already a primitive cell.

 Routine SETGRP: Setting up the symmetry group for a
 hexagonal supercell.

 Subroutine GETGRP returns: Found 12 space group operations
 (whereof  6 operations were pure point group operations)
 out of a pool of 24 trial point group operations.

The constrained configuration has the point symmetry C_3v.
 The point group associated with its full space group is D_3d.

 Subroutine INISYM returns: Found 12 space group operations
 (whereof  6 operations are pure point group operations),
 and found     1 'primitive' translations

 KPOINTS: k-point density of [50, 50, 50]/[a, b, c

Automatic generation of k-mesh.
Space group operators:
 irot       det(A)        alpha          n_x          n_y          n_z        tau_x        tau_y        tau_z
    1     1.000000     0.000001     1.000000     0.000000     0.000000     0.000000     0.000000     0.000000
    2     1.000000   120.000000     0.000000    -0.000000    -1.000000     0.000000     0.000000     0.000000
    3     1.000000   120.000000     0.000000    -0.000000     1.000000     0.000000     0.000000     0.000000
    4    -1.000000   179.999999     1.000000    -0.000000     0.000000     0.000000     0.000000     0.000000
    5    -1.000000   180.000000     0.500000    -0.866025     0.000000     0.000000     0.000000     0.000000
    6    -1.000000   179.999999    -0.500000    -0.866025     0.000000     0.000000     0.000000     0.000000
    7    -1.000000     0.000001     1.000000     0.000000     0.000000     0.666666     0.333334     0.500000
    8    -1.000000   120.000000     0.000000    -0.000000    -1.000000     0.666666     0.333333     0.500000
    9    -1.000000   120.000000     0.000000    -0.000000     1.000000     0.666667     0.333334     0.500000
   10     1.000000   179.999999     1.000000    -0.000000     0.000000     0.666667     0.333334     0.500000
   11     1.000000   180.000000     0.500000    -0.866025     0.000000     0.666666     0.333333     0.500000
   12     1.000000   179.999999    -0.500000    -0.866025     0.000000     0.666666     0.333334     0.500000

 Subroutine IBZKPT returns following result:

 Found     19 irreducible k-points:

 Following reciprocal coordinates:
            Coordinates               Weight
  0.000000  0.000000  0.000000      1.000000
  0.083333 -0.000000  0.000000      6.000000
  0.166667 -0.000000  0.000000      6.000000
  0.250000 -0.000000  0.000000      6.000000
  0.333333 -0.000000  0.000000      6.000000
  0.416667 -0.000000  0.000000      6.000000
  0.500000 -0.000000  0.000000      3.000000
  0.083333  0.083333  0.000000      6.000000
  0.166667  0.083333  0.000000     12.000000
  0.250000  0.083333  0.000000     12.000000
  0.333333  0.083333  0.000000     12.000000
  0.416667  0.083333  0.000000     12.000000
  0.166667  0.166667  0.000000      6.000000
  0.250000  0.166667  0.000000     12.000000
  0.333333  0.166667  0.000000     12.000000
  0.416667  0.166667  0.000000      6.000000
  0.250000  0.250000  0.000000      6.000000
  0.333333  0.250000  0.000000     12.000000
  0.333333  0.333333  0.000000      2.000000

 Following cartesian coordinates:
            Coordinates               Weight
  0.000000  0.000000  0.000000      1.000000
  0.019243  0.011110  0.000000      6.000000
  0.038485  0.022220  0.000000      6.000000
  0.057728  0.033329  0.000000      6.000000
  0.076971  0.044439  0.000000      6.000000
  0.096214  0.055549  0.000000      6.000000
  0.115456  0.066659  0.000000      3.000000
  0.019243  0.033329  0.000000      6.000000
  0.038485  0.044439  0.000000     12.000000
  0.057728  0.055549  0.000000     12.000000
  0.076971  0.066659  0.000000     12.000000
  0.096214  0.077768  0.000000     12.000000
  0.038485  0.066659  0.000000      6.000000
  0.057728  0.077768  0.000000     12.000000
  0.076971  0.088878  0.000000     12.000000
  0.096214  0.099988  0.000000      6.000000
  0.057728  0.099988  0.000000      6.000000
  0.076971  0.111098  0.000000     12.000000
  0.076971  0.133317  0.000000      2.000000

 SYSTEM =  Tetradymite Slab
 POSCAR =  Sb12 Te18

 Startparameter for this run:
   NWRITE =      2    write-flag & timer
   PREC   = accura    normal or accurate (medium, high low for compatibility)
   ISTART =      0    job   : 0-new  1-cont  2-samecut
   ICHARG =      2    charge: 1-file 2-atom 10-const
   ISPIN  =      1    spin polarized calculation?
   LNONCOLLINEAR =      F non collinear calculations
   LSORBIT =      F    spin-orbit coupling
   INIWAV =      1    electr: 0-lowe 1-rand  2-diag
   LASPH  =      F    aspherical Exc in radial PAW
   METAGGA=      F    non-selfconsistent MetaGGA calc.

 Electronic Relaxation 1
   ENCUT  =  300.0 eV  22.05 Ry    4.70 a.u.   6.12  6.12177.03*2*pi/ulx,y,z
   ENINI  =  300.0     initial cutoff
   ENAUG  =  380.5 eV  augmentation charge cutoff
   NELM   =     80;   NELMIN=  2; NELMDL= -5     # of ELM steps
   EDIFF  = 0.1E-05   stopping-criterion for ELM
   LREAL  =      F    real-space projection
   NLSPLINE    = F    spline interpolate recip. space projectors
   LCOMPAT=      F    compatible to vasp.4.4
   GGA_COMPAT  = T    GGA compatible to vasp.4.4-vasp.4.6
   LMAXPAW     = -100 max onsite density
   LMAXMIX     =    2 max onsite mixed and CHGCAR
   VOSKOWN=      0    Vosko Wilk Nusair interpolation
   ROPT   =    0.00000   0.00000
 Ionic relaxation
   EDIFFG = -.1E-01   stopping-criterion for IOM
   NSW    =     20    number of steps for IOM
   NBLOCK =      1;   KBLOCK =     20    inner block; outer block
   IBRION =      2    ionic relax: 0-MD 1-quasi-New 2-CG
   NFREE  =      1    steps in history (QN), initial steepest desc. (CG)
   ISIF   =      2    stress and relaxation
   IWAVPR =     11    prediction:  0-non 1-charg 2-wave 3-comb
   ISYM   =      2    0-nonsym 1-usesym 2-fastsym
   LCORR  =      T    Harris-Foulkes like correction to forces

   POTIM  = 0.5000    time-step for ionic-motion
   TEIN   =    0.0    initial temperature
   TEBEG  =    0.0;   TEEND  =   0.0 temperature during run
   SMASS  =  -3.00    Nose mass-parameter (am)
   estimated Nose-frequenzy (Omega)   =  0.10E-29 period in steps =****** mass=  -0.429E-27a.u.
   SCALEE = 1.0000    scale energy and forces
   NPACO  =    256;   APACO  = 16.0  distance and # of slots for P.C.
   PSTRESS=    0.0 pullay stress

  Mass of Ions in am
   POMASS = 121.75127.60
  Ionic Valenz
   ZVAL   =   5.00  6.00
  Atomic Wigner-Seitz radii
[...]
      0.00000      0.00000     50.70240        -0.000000      0.000000     -0.006119
     -0.00000      2.50030     47.00597        -0.000000     -0.000000     -0.013032
    total drift:                               -0.000831      0.000480      0.114398

  FREE ENERGIE OF THE ION-ELECTRON SYSTEM (eV)
  free  energy   TOTEN  =      -109.80584980 eV

  energy  without entropy=     -109.83323826  energy(sigma->0) =     -109.81497929

[...]

 d Force = 0.6736789E-03[ 0.558E-03, 0.789E-03]  d Energy = 0.6807497E-03-0.707E-05
 d Force =-0.2428545E+02[-0.243E+02,-0.243E+02]  d Ewald  =-0.2428546E+02 0.472E-06

 Steepest descent step on ions:
 trial-energy change:   -0.000681  1 .order   -0.000674   -0.000789   -0.000558
  (g-gl).g = 0.789E-03      g.g   = 0.789E-03  gl.gl    = 0.000E+00
 g(Force)  = 0.789E-03   g(Stress)= 0.000E+00 ortho     = 0.000E+00
 gamma     =   0.00000
 trial     =   1.00000
 opt step  =   2.63167  (harmonic =   3.42175) maximal distance =0.01034546
 next E    =  -109.807017   (d E  =  -0.00117)

[...]

 eigenvalue-minimisations  :  3313
 total energy-change (2. order) : 0.3614206E-05  (-0.1236473E-06)
 number of electron     167.9999918 magnetization
 augmentation part      -31.2538687 magnetization

 Broyden mixing:
  rms(total) = 0.22195E-03    rms(broyden)= 0.22194E-03
  rms(prec ) = 0.24425E-03
  weight for this iteration     100.00

 eigenvalues of (default mixing * dielectric matrix)
  average eigenvalue GAMMA=   0.8332
  1.8029  0.9568  0.3348  0.2383

[...]

--------------------------------------- Iteration      5(   6)  ---------------------------------------

 eigenvalue-minimisations  :  2924
 total energy-change (2. order) :-0.5543916E-07  (-0.5708789E-07)
 number of electron     167.9999918 magnetization
 augmentation part      -31.2538687 magnetization

 Free energy of the ion-electron system (eV)
  alpha Z        PSCENC =        -5.40434045
  Ewald energy   TEWEN  =    407119.53917226
  -Hartree energ DENC   =   -412520.45009805
  -exchange      EXHF   =         0.00000000
  -V(xc)+E(xc)   XCENC  =     -1056.83150721
  PAW double counting   =      2981.74503424    -1641.97000917
  entropy T*S    EENTRO =         0.02734050
  eigenvalues    EBANDS =      -802.93628268
  atomic energy  EATOM  =      5816.47334678
  Solvation  Ediel_sol  =         0.00000000
  free energy    TOTEN  =      -109.80734379 eV

  energy without entropy =     -109.83468429  energy(sigma->0) =     -109.81645729

 average (electrostatic) potential at core
  the test charge radii are     1.1712  1.1897
  (the norm of the test charge is              1.0000)
       1 -92.9689       2 -92.9448       3 -92.9277       4 -92.9528       5 -92.9537
       6 -92.9704       7 -92.9345       8 -92.9676       9 -92.9671      10 -92.9484
      11 -92.9465      12 -92.9194      13 -93.8916      14 -94.0017      15 -93.8411
      16 -93.9914      17 -93.9492      18 -93.7830      19 -94.0074      20 -93.9828
      21 -93.8241      22 -94.0010      23 -93.8808      24 -93.7734      25 -93.9787
      26 -94.0038      27 -93.8392      28 -93.9413      29 -93.9839      30 -93.8183

 E-fermi :   0.4578     XC(G=0):  -4.6142     alpha+bet : -5.2823

[...]

 k-point    19 :       0.3333    0.3333    0.0000
  band No.  band energies     occupation
      1     -10.2879      2.00000
      2     -10.2843      2.00000
      3     -10.2834      2.00000
      4     -10.2827      2.00000
      5     -10.2722      2.00000
      6     -10.2713      2.00000
      7     -10.2692      2.00000
      8     -10.2648      2.00000
      9     -10.2629      2.00000
     10     -10.2590      2.00000
     11     -10.2542      2.00000
     12     -10.2484      2.00000
     13     -10.2320      2.00000
     14     -10.2241      2.00000
     15     -10.2201      2.00000
     16     -10.2105      2.00000
     17     -10.1821      2.00000
     18     -10.1714      2.00000
     19      -8.9274      2.00000
     20      -8.9247      2.00000
     21      -8.9212      2.00000
     22      -8.9110      2.00000
     23      -8.9065      2.00000
     24      -8.9010      2.00000
     25      -8.9000      2.00000
     26      -8.8960      2.00000
     27      -8.8913      2.00000
     28      -8.8809      2.00000
     29      -8.8732      2.00000
     30      -8.8650      2.00000
     31      -4.3443      2.00000
     32      -4.3421      2.00000
     33      -4.3279      2.00000
     34      -4.3221      2.00000
     35      -4.2838      2.00000
     36      -4.2746      2.00000
     37      -3.9321      2.00000
     38      -3.9275      2.00000
     39      -3.9259      2.00000
     40      -3.8925      2.00000
     41      -3.8881      2.00000
     42      -3.8565      2.00000
     43      -3.8269      2.00000
     44      -3.8234      2.00000
     45      -3.8233      2.00000
     46      -3.8062      2.00000
     47      -3.7818      2.00000
     48      -3.7739      2.00000
     49      -3.3645      2.00000
     50      -3.3624      2.00000
     51      -3.3521      2.00000
     52      -3.3351      2.00000
     53      -3.2781      2.00000
     54      -3.2693      2.00000
     55      -2.6355      2.00000
     56      -2.6342      2.00000
     57      -2.6336      2.00000
     58      -2.5381      2.00000
     59      -2.5307      2.00000
     60      -2.5301      2.00000
[...]
    114       4.3919     -0.00000
    115       4.4643     -0.00000
    116       4.4756     -0.00000
    117       4.4770     -0.00000
    118       4.5332     -0.00000
    119       4.5336     -0.00000
    120       4.5346     -0.00000
    121       5.9668      0.00000
    122       5.9732      0.00000
    123       5.9770      0.00000
    124       5.9959      0.00000
    125       6.0034      0.00000
    126       6.2097      0.00000
    127       6.2192      0.00000
    128       6.2665      0.00000

 soft charge-density along one line, spin component           1
         0         1         2         3         4         5         6         7         8         9
 total charge-density along one line

------------------------ aborting loop because EDIFF is reached ----------------------------------------

[...]

  FORCE on cell =-STRESS in cart. coord.  units (eV):
  Direction    XX          YY          ZZ          XY          YZ          ZX
  Alpha Z    -5.40434    -5.40434    -5.40434
  Ewald  411089.18542411089.18543************     0.00001     0.00000    -0.00000
  Hartree412291.50308412291.50307************    -0.00000    -0.00000     0.00000
  E(xc)    -660.16143  -660.16145  -659.57558    -0.00002     0.00000    -0.00000
  Local  ************************824175.89073    -0.00057     0.00000    -0.00000
  n-local  2983.69465  2982.68582  2979.56985   -10.68426    -0.36696    16.37948
  augment  -688.32219  -688.32158  -686.54891     0.00052    -0.00000     0.00000
  Kinetic  1290.16676  1341.21606  1316.05061   -62.39273    -0.39442    -3.21824
  Fock        0.00000     0.00000     0.00000     0.00000     0.00000     0.00000
  Total       0.47582     0.47582     0.46956     0.00000     0.00000     0.00000
  in kB       0.37445     0.37445     0.36952     0.00000     0.00000     0.00000

 VOLUME and BASIS-vectors are now :
  energy-cutoff  :      300.00
  volume of cell :     2035.91
      direct lattice vectors                 reciprocal lattice vectors
     4.330645995  0.000000000  0.000000000     0.230912432  0.133317352  0.000000000
    -2.165322957  3.750449470  0.000000000     0.000000000  0.266634708  0.000000000
     0.000000000  0.000000000125.349205136    -0.000000000 -0.000000000  0.007977713

  length of vectors
     4.330645995  4.330645995125.349205136     0.266634708  0.266634708  0.007977713

 FORCES acting on ions
    electron-ion (+dipol)            ewald-force                    non-local-force                 convergence-correction
   0.355E-03 -.205E-03 0.221E+03   0.102E-03 -.588E-04 -.224E+03   0.134E-16 -.747E-17 0.356E+01   0.267E-08 -.154E-08 0.118E-01
   0.357E-03 -.206E-03 0.212E+04   0.899E-04 -.519E-04 -.212E+04   0.568E-17 0.944E-17 -.390E+01   0.226E-08 -.130E-08 -.632E-02
   -.277E-04 0.161E-04 0.178E+04   -.123E-04 0.712E-05 -.178E+04   0.244E-16 -.374E-17 0.356E+01   -.542E-08 0.313E-08 -.117E-01
   -.269E-04 0.155E-04 0.134E+04   0.127E-04 -.732E-05 -.134E+04   -.486E-17 0.180E-17 -.363E+01   0.520E-08 -.300E-08 -.198E-01
   -.408E-03 0.236E-03 0.100E+04   -.899E-04 0.519E-04 -.100E+04   0.892E-17 -.299E-18 0.353E+01   0.190E-09 -.110E-09 -.145E-01
   -.409E-03 0.236E-03 0.559E+03   -.102E-03 0.588E-04 -.556E+03   -.681E-17 0.163E-17 -.359E+01   -.359E-08 0.207E-08 0.127E-01
   0.360E-03 -.208E-03 -.212E+04   0.103E-03 -.594E-04 0.212E+04   0.101E-16 -.180E-16 0.390E+01   -.593E-08 0.342E-08 0.632E-02
   0.353E-03 -.204E-03 -.221E+03   0.898E-04 -.518E-04 0.224E+03   -.738E-17 0.418E-17 -.356E+01   -.284E-10 0.164E-10 -.118E-01
   -.278E-04 0.160E-04 -.559E+03   -.126E-04 0.725E-05 0.556E+03   -.829E-17 -.928E-18 0.359E+01   -.384E-08 0.222E-08 -.127E-01
   -.250E-04 0.144E-04 -.100E+04   0.123E-04 -.711E-05 0.100E+04   -.107E-16 0.275E-17 -.353E+01   0.193E-08 -.111E-08 0.145E-01
   -.410E-03 0.237E-03 -.134E+04   -.896E-04 0.517E-04 0.134E+04   0.194E-16 0.552E-17 0.363E+01   0.411E-09 -.237E-09 0.198E-01
   -.409E-03 0.236E-03 -.178E+04   -.102E-03 0.587E-04 0.178E+04   -.186E-16 0.660E-17 -.356E+01   -.343E-08 0.198E-08 0.117E-01
   -.324E-04 0.189E-04 0.271E+04   -.360E-04 0.208E-04 -.272E+04   0.151E-16 0.162E-16 0.579E+01   0.106E-08 -.610E-09 -.195E-02
   -.745E-03 0.430E-03 0.904E+02   -.828E-04 0.478E-04 -.849E+02   0.347E-16 -.301E-16 -.552E+01   -.598E-08 0.345E-08 0.760E-02
   -.286E-04 0.165E-04 0.468E+03   -.766E-07 0.442E-07 -.468E+03   -.223E-19 -.279E-19 0.557E-02   -.540E-09 0.312E-09 0.176E-01
   -.742E-03 0.428E-03 0.178E+04   -.544E-04 0.314E-04 -.179E+04   0.551E-16 -.136E-16 0.557E+01   -.760E-08 0.439E-08 -.182E-01
   0.682E-03 -.394E-03 0.196E+04   0.543E-04 -.313E-04 -.196E+04   -.696E-16 0.264E-16 -.552E+01   -.444E-08 0.256E-08 -.124E-01
   -.721E-03 0.416E-03 0.234E+04   -.830E-04 0.479E-04 -.234E+04   -.392E-17 0.151E-17 -.317E-02   -.165E-08 0.951E-09 -.119E-01
   0.689E-03 -.398E-03 0.845E+03   0.829E-04 -.479E-04 -.851E+03   -.958E-18 -.203E-16 0.554E+01   -.296E-08 0.171E-08 0.746E-02
   -.250E-04 0.144E-04 0.103E+04   0.295E-04 -.170E-04 -.102E+04   0.217E-16 -.449E-17 -.550E+01   0.147E-08 -.850E-09 -.899E-02
   0.667E-03 -.385E-03 0.140E+04   0.829E-04 -.479E-04 -.140E+04   0.191E-19 -.193E-19 0.263E-01   -.262E-09 0.151E-09 -.234E-01
   -.336E-04 0.194E-04 -.904E+02   -.295E-04 0.170E-04 0.849E+02   -.152E-16 0.248E-16 0.552E+01   -.264E-08 0.153E-08 -.761E-02
   -.747E-03 0.431E-03 -.271E+04   -.774E-04 0.447E-04 0.272E+04   -.228E-17 0.137E-16 -.579E+01   0.708E-09 -.409E-09 0.195E-02
   -.256E-04 0.148E-04 -.234E+04   0.990E-07 -.572E-07 0.234E+04   0.353E-17 -.149E-17 0.317E-02   -.279E-08 0.161E-08 0.119E-01
   -.740E-03 0.427E-03 -.103E+04   -.543E-04 0.314E-04 0.102E+04   -.120E-16 0.251E-18 0.550E+01   0.536E-08 -.309E-08 0.898E-02
   0.685E-03 -.395E-03 -.845E+03   0.544E-04 -.314E-04 0.851E+03   0.962E-17 0.126E-16 -.554E+01   -.392E-08 0.226E-08 -.746E-02
   -.724E-03 0.418E-03 -.468E+03   -.828E-04 0.478E-04 0.468E+03   -.367E-19 0.954E-20 -.557E-02   -.886E-10 0.511E-10 -.176E-01
   0.687E-03 -.397E-03 -.196E+04   0.827E-04 -.478E-04 0.196E+04   0.616E-16 -.317E-16 0.552E+01   -.198E-08 0.114E-08 0.124E-01
   -.262E-04 0.151E-04 -.178E+04   0.296E-04 -.171E-04 0.179E+04   -.343E-16 0.245E-17 -.557E+01   0.439E-08 -.253E-08 0.182E-01
   0.667E-03 -.385E-03 -.140E+04   0.827E-04 -.477E-04 0.140E+04   -.129E-18 0.819E-19 -.263E-01   -.241E-08 0.139E-08 0.234E-01
   -.832E-03 0.480E-03 0.115E+00   -.689E-14 0.102E-12 -.455E-12   0.883E-16 -.227E-17 -.269E-14   -.338E-07 0.195E-07 -.539E-04

 POSITION                                       TOTAL-FORCE (eV/Angst)
     -0.00000      2.50030     28.10285         0.000000     -0.000000      0.002186
     -0.00000      2.50030      3.23634         0.000000     -0.000000     -0.026271
      0.00000     -0.00000      7.21070         0.000000     -0.000000      0.002629
      0.00000     -0.00000     13.67876        -0.000000      0.000000      0.002541
      2.16533      1.25015     17.65635        -0.000000      0.000000      0.002624
      2.16533      1.25015     24.12513        -0.000000      0.000000      0.001467
     -0.00000      2.50030     59.43830        -0.000000      0.000000      0.026271
     -0.00000      2.50030     34.57178        -0.000000      0.000000     -0.002186
     -0.00000     -0.00000     38.54948         0.000000     -0.000000     -0.001467
     -0.00000      0.00000     45.01825         0.000000     -0.000000     -0.002624
      2.16533      1.25015     48.99585         0.000000     -0.000000     -0.002541
      2.16533      1.25015     55.46390        -0.000000      0.000000     -0.002629
      0.00000     -0.00000      1.54120         0.000000     -0.000000      0.001200
      2.16533      1.25015     29.81162         0.000000      0.000000      0.005511
      0.00000      0.00000     26.11512        -0.000000      0.000000     -0.001379
      2.16533      1.25015     11.97198        -0.000000      0.000000     -0.007690
     -0.00000      2.50030      8.92083         0.000000     -0.000000      0.007753
      2.16533      1.25015      5.22418        -0.000000      0.000000      0.007411
     -0.00000      2.50030     22.41728         0.000000     -0.000000     -0.007642
     -0.00000      0.00000     19.36594         0.000000      0.000000      0.004851
     -0.00000      2.50030     15.67073         0.000000     -0.000000     -0.000583
     -0.00000     -0.00000     32.86298        -0.000000     -0.000000     -0.005511
      2.16533      1.25015     61.13340         0.000000      0.000000     -0.001200
     -0.00000      0.00000     57.45042         0.000000     -0.000000     -0.007411
      2.16533      1.25015     43.30867        -0.000000     -0.000000     -0.004851
     -0.00000      2.50030     40.25736        -0.000000      0.000000      0.007642
      2.16533      1.25015     36.55948         0.000000     -0.000000      0.001379
     -0.00000      2.50030     53.75380        -0.000000      0.000000     -0.007753
     -0.00000      0.00000     50.70263         0.000000     -0.000000      0.007690
     -0.00000      2.50030     47.00390        -0.000000      0.000000      0.000583
    total drift:                               -0.000832      0.000480      0.114878

  FREE ENERGIE OF THE ION-ELECTRON SYSTEM (eV)
  free  energy   TOTEN  =      -109.80734379 eV

  energy  without entropy=     -109.83468429  energy(sigma->0) =     -109.81645729

 d Force = 0.1365666E-03[ 0.801E-04, 0.193E-03]  d Energy = 0.1383167E-03-0.175E-05
 d Force =-0.1263603E+02[-0.126E+02,-0.126E+02]  d Ewald  =-0.1263603E+02-0.378E-07

 Conjugate gradient step on ions:
 trial-energy change:   -0.000138  1 .order   -0.000137   -0.000193   -0.000080
  (g-gl).g = 0.125E-03      g.g   = 0.130E-03  gl.gl    = 0.789E-03
 g(Force)  = 0.130E-03   g(Stress)= 0.000E+00 ortho     = 0.527E-05
 gamma     =   0.15857
 trial     =   1.47089
 opt step  =   2.51511  (harmonic =   2.51511) maximal distance =0.00268013
 next E    =  -109.807370   (d E  =  -0.00017)

 reached required accuracy - stopping structural energy minimisation
 writing wavefunctions

 total charge

# of ion       s       p       d       tot
    1        1.292   0.950   0.048   2.290
    2        1.296   0.943   0.049   2.287
    3        1.294   0.947   0.048   2.289
    4        1.292   0.950   0.048   2.290
    5        1.293   0.949   0.048   2.290
    6        1.292   0.950   0.048   2.290
    7        1.296   0.943   0.049   2.287
    8        1.292   0.950   0.048   2.290
    9        1.292   0.950   0.048   2.290
   10        1.293   0.949   0.048   2.289
   11        1.292   0.950   0.048   2.290
   12        1.294   0.947   0.048   2.289
   13        1.398   1.915   0.021   3.335
   14        1.405   1.897   0.024   3.326
   15        1.390   1.939   0.029   3.358
   16        1.406   1.896   0.024   3.326
   17        1.405   1.899   0.024   3.327
   18        1.389   1.943   0.028   3.360
   19        1.406   1.897   0.024   3.326
   20        1.405   1.898   0.024   3.327
   21        1.390   1.939   0.029   3.358
   22        1.405   1.897   0.024   3.327
   23        1.398   1.915   0.021   3.334
   24        1.389   1.943   0.028   3.360
   25        1.405   1.898   0.024   3.327
   26        1.406   1.896   0.024   3.326
   27        1.390   1.939   0.029   3.358
   28        1.405   1.899   0.024   3.328
   29        1.406   1.896   0.024   3.326
   30        1.390   1.939   0.029   3.358
tot         40.707  45.823   1.028  87.559